LAMMPS data file via write_data, version 22 Aug 2018, timestep = 30000

1000 atoms
3 atom types
999 bonds
3 bond types
998 angles
1 angle types

-1.5000000000000000e+02 1.5000000000000000e+02 xlo xhi
-1.5000000000000000e+02 1.5000000000000000e+02 ylo yhi
-1.5000000000000000e+02 1.5000000000000000e+02 zlo zhi

Masses

1 1
2 1
3 1

Atoms # angle

8 1 1 -8.2657851144122905e+00 -6.3334800671062927e+00 -1.1134796649548991e+02 0 0 0
7 1 1 -7.8103741436985707e+00 -5.4135762634080722e+00 -1.1134277170755142e+02 0 0 0
6 1 1 -7.3724316630341917e+00 -4.5566603084577046e+00 -1.1164965451562075e+02 0 0 0
5 1 1 -6.5782262681630410e+00 -3.9922948296419141e+00 -1.1160042844340077e+02 0 0 0
3 1 1 -5.0783566992091638e+00 -2.9246366964772341e+00 -1.1141641982463453e+02 0 0 0
4 1 1 -5.8474595650862078e+00 -3.4386860126920653e+00 -1.1167673579603833e+02 0 0 0
10 1 1 -8.9488579970122348e+00 -8.1425740286352521e+00 -1.1145960284478244e+02 0 0 0
9 1 1 -8.5539980679176608e+00 -7.2649027358237577e+00 -1.1158065871528908e+02 0 0 0
1 1 1 -3.5547100000000000e+00 -1.9538400000000000e+00 -1.1209900000000000e+02 0 0 0
2 1 1 -4.2633770640403972e+00 -2.5279294584988938e+00 -1.1176440745678747e+02 0 0 0
11 1 1 -9.3587615752712345e+00 -8.8210836643709776e+00 -1.1093673668571945e+02 0 0 0
12 1 1 -9.7464667538239755e+00 -9.4157929777520604e+00 -1.1031852468043073e+02 0 0 0
13 1 1 -9.7074810456374188e+00 -9.7966302963171437e+00 -1.0938245611111040e+02 0 0 0
14 1 1 -9.8020163002292477e+00 -9.6257513588195547e+00 -1.0842181919762328e+02 0 0 0
15 1 1 -9.7578044675457125e+00 -8.8309374983436904e+00 -1.0788448337110110e+02 0 0 0
16 1 1 -9.6802645986929505e+00 -7.9760327620388880e+00 -1.0738599710586388e+02 0 0 0
17 1 1 -9.6786573924914130e+00 -7.2560199055704064e+00 -1.0669711710961811e+02 0 0 0
18 1 1 -9.0102718625813853e+00 -6.6403072377414425e+00 -1.0644585446476395e+02 0 0 0
19 1 1 -8.2930935522625440e+00 -6.1226031405009289e+00 -1.0600678159152200e+02 0 0 0
20 1 1 -7.9546388347707415e+00 -5.3151532522097256e+00 -1.0559454956852569e+02 0 0 0
21 1 1 -7.8579581861089842e+00 -4.5742227134342803e+00 -1.0491189121029954e+02 0 0 0
22 1 1 -8.0203146924174273e+00 -3.8084769818542523e+00 -1.0437883108289404e+02 0 0 0
23 1 1 -7.8057105451896494e+00 -2.9309369713784257e+00 -1.0389563812044430e+02 0 0 0
26 1 1 -8.8611908273950224e+00 -1.4988833189934028e+00 -1.0214861944463472e+02 0 0 0
25 1 1 -7.9724810479625994e+00 -2.0367800125555982e+00 -1.0232490091242356e+02 0 0 0
27 1 1 -9.6935531727744113e+00 -9.9071532164362985e-01 -1.0235789542637046e+02 0 0 0
28 1 1 -1.0602236058945401e+01 -6.6775758953386355e-01 -1.0233900514611794e+02 0 0 0
24 1 1 -7.6974111046950808e+00 -2.3981288926033186e+00 -1.0315432907987503e+02 0 0 0
32 1 1 -1.3862608028738938e+01 6.3092921960756221e-01 -1.0183931412531065e+02 0 0 0
31 1 1 -1.3159986707892518e+01 1.2340554082789754e-01 -1.0221564455960834e+02 0 0 0
29 1 1 -1.1418786061060988e+01 -5.0152413223540004e-01 -1.0276187408225418e+02 0 0 0
30 1 1 -1.2326283970346157e+01 -1.7034022293834816e-01 -1.0264804655917115e+02 0 0 0
34 1 1 -1.4796620068099937e+01 1.3902081586595236e+00 -1.0037173757272809e+02 0 0 0
33 1 1 -1.4334204842566205e+01 1.2136606361704445e+00 -1.0118172881956689e+02 0 0 0
58 1 1 -1.7850899270173557e+00 -7.0813147385516020e+00 -9.7386513305657431e+01 0 0 0
59 1 1 -8.8264703771427699e-01 -6.7489282229139702e+00 -9.7615882831953840e+01 0 0 0
60 1 1 4.5610864515723132e-02 -6.4385705247069360e+00 -9.7602077116412701e+01 0 0 0
61 1 1 9.2259890196496064e-01 -5.9514238391751855e+00 -9.7349533102908680e+01 0 0 0
35 1 1 -1.4990212659535540e+01 1.9594248271327819e+00 -9.9595336807350449e+01 0 0 0
36 1 1 -1.4955672883555813e+01 2.5626452891493319e+00 -9.8877058684023851e+01 0 0 0
55 1 1 -4.6160565989328308e+00 -7.4540857751513379e+00 -9.7956029632865281e+01 0 0 0
54 1 1 -5.4960342793553592e+00 -7.5505708863055130e+00 -9.8451717510134117e+01 0 0 0
56 1 1 -3.6912834733697113e+00 -7.4479108299326722e+00 -9.7731858274192220e+01 0 0 0
57 1 1 -2.7118865199899518e+00 -7.3212281897759111e+00 -9.7656854981655854e+01 0 0 0
52 1 1 -7.0507277350388300e+00 -7.2868739701492604e+00 -9.9521031491296370e+01 0 0 0
53 1 1 -6.2713151774608216e+00 -7.4663008181274284e+00 -9.8993796600744673e+01 0 0 0
62 1 1 1.4921356579670595e+00 -5.4917886467640447e+00 -9.6768584640692737e+01 0 0 0
63 1 1 2.0170143398137625e+00 -4.8837643295616306e+00 -9.6184385474885005e+01 0 0 0
38 1 1 -1.4566758902661682e+01 2.4083056690928011e+00 -9.7047026686168905e+01 0 0 0
37 1 1 -1.4579974291008542e+01 2.6896573717396883e+00 -9.7985177511309956e+01 0 0 0
50 1 1 -8.7654076500954030e+00 -6.4977470653869176e+00 -9.9438422647592688e+01 0 0 0
49 1 1 -9.5219448299244043e+00 -5.9622908192677837e+00 -9.9155790362017328e+01 0 0 0
51 1 1 -7.9200718630295963e+00 -6.9362949133342306e+00 -9.9684170111154444e+01 0 0 0
48 1 1 -1.0057975278764960e+01 -5.1718662410178764e+00 -9.8858670304575185e+01 0 0 0
64 1 1 2.0034890271050974e+00 -4.0040396619515990e+00 -9.5805522497785589e+01 0 0 0
47 1 1 -1.0506193868842011e+01 -4.4264009880581519e+00 -9.8379654196825072e+01 0 0 0
40 1 1 -1.3552729578401516e+01 9.6486206210867331e-01 -9.6476551799719871e+01 0 0 0
39 1 1 -1.4202169297327881e+01 1.6195343783590230e+00 -9.6658182879716108e+01 0 0 0
87 1 1 -8.9354090607573440e+00 -3.0568685801237385e+00 -9.4767743083482870e+01 0 0 0
88 1 1 -8.7469355072001012e+00 -3.7690400851770698e+00 -9.5436598044438909e+01 0 0 0
89 1 1 -8.5695500665961504e+00 -4.5995165442306956e+00 -9.5922658640803135e+01 0 0 0
65 1 1 1.6822419537525362e+00 -3.5009231960076601e+00 -9.5055033051020033e+01 0 0 0
66 1 1 1.2101091817754734e+00 -2.8351627119702592e+00 -9.4569770589355855e+01 0 0 0
46 1 1 -1.0696032090910332e+01 -3.5598347451517931e+00 -9.7924790349001114e+01 0 0 0
44 1 1 -1.1468647570674186e+01 -2.2171080094249516e+00 -9.6806627505240286e+01 0 0 0
45 1 1 -1.1129765914391752e+01 -3.1065320438022765e+00 -9.7185450375467440e+01 0 0 0
41 1 1 -1.2853792855692967e+01 3.3971584275548544e-01 -9.6812165882998599e+01 0 0 0
42 1 1 -1.2381783184703856e+01 -4.7967455853843188e-01 -9.6639387697018932e+01 0 0 0
43 1 1 -1.1751074343125788e+01 -1.2749228948258116e+00 -9.6654281958130326e+01 0 0 0
67 1 1 6.8769749371235755e-01 -2.2120291455640642e+00 -9.4006495948303495e+01 0 0 0
86 1 1 -8.8638146273469154e+00 -2.4080154179179809e+00 -9.4063574949552915e+01 0 0 0
90 1 1 -7.5929274351071685e+00 -4.7708431977152239e+00 -9.6219518713398145e+01 0 0 0
91 1 1 -6.6705272645917697e+00 -4.6701626586136351e+00 -9.6143092545768695e+01 0 0 0
92 1 1 -5.9978011688074782e+00 -4.2717159439598866e+00 -9.5638285968649356e+01 0 0 0
93 1 1 -5.4103629156024349e+00 -3.9066650192672348e+00 -9.4946808651688798e+01 0 0 0
85 1 1 -9.0437939113295833e+00 -1.8812570087912275e+00 -9.3289087512448859e+01 0 0 0
84 1 1 -9.0914120370286096e+00 -1.7343176142505627e+00 -9.2345302699197745e+01 0 0 0
68 1 1 2.7136768241821685e-01 -1.9878961277646670e+00 -9.3231859691331749e+01 0 0 0
94 1 1 -4.8021961866775360e+00 -3.3783264897007919e+00 -9.4471783936021822e+01 0 0 0
95 1 1 -4.4797254261280095e+00 -2.4944265246636710e+00 -9.3971027064736660e+01 0 0 0
96 1 1 -4.9450228997548686e+00 -1.8468857474169558e+00 -9.3440420640999662e+01 0 0 0
97 1 1 -5.1206632252680251e+00 -1.2610151380899213e+00 -9.2655400357331203e+01 0 0 0
70 1 1 -8.4287971066332934e-01 -2.0142381599767782e+00 -9.1696941674656159e+01 0 0 0
69 1 1 -2.1444910276843079e-01 -2.0248299246419785e+00 -9.2450834708314218e+01 0 0 0
83 1 1 -8.8223106757799226e+00 -1.6784589488538395e+00 -9.1421365695172824e+01 0 0 0
98 1 1 -4.8046891099261160e+00 -7.8291059457194911e-01 -9.1804759974601964e+01 0 0 0
71 1 1 -1.4542285343813048e+00 -2.4690289262193592e+00 -9.1113442413106213e+01 0 0 0
82 1 1 -8.8867351638604664e+00 -1.9468472953292439e+00 -9.0514986330652633e+01 0 0 0
81 1 1 -8.7462830213295462e+00 -2.1892801189993603e+00 -8.9584292470942074e+01 0 0 0
99 1 1 -4.0158884827938257e+00 -7.5244054943207750e-01 -9.1254620590095286e+01 0 0 0
73 1 1 -2.7546394398359118e+00 -2.5894194455779167e+00 -8.9647143035152155e+01 0 0 0
72 1 1 -2.0298437323889282e+00 -2.6157271882577748e+00 -9.0376865944928710e+01 0 0 0
80 1 1 -8.1876827421079934e+00 -2.6696664820379312e+00 -8.8917999796464187e+01 0 0 0
79 1 1 -7.4499318680434232e+00 -3.0549067550471918e+00 -8.8633597932844339e+01 0 0 0
78 1 1 -6.5552256369373980e+00 -3.1517424980752797e+00 -8.8358159833818831e+01 0 0 0
77 1 1 -5.6612720161719139e+00 -3.4093611954735259e+00 -8.8164030483018848e+01 0 0 0
101 1 1 -3.6571666433672743e+00 -8.5723608592073064e-01 -8.9378467440343925e+01 0 0 0
100 1 1 -3.7400684054916136e+00 -8.8272345835287858e-01 -9.0285093739258613e+01 0 0 0
76 1 1 -4.7204643741771593e+00 -3.0892978597018690e+00 -8.8139172314506709e+01 0 0 0
75 1 1 -3.8352408874411417e+00 -2.5231187802482600e+00 -8.8129639060134565e+01 0 0 0
74 1 1 -3.0770987251023829e+00 -2.4559884683385564e+00 -8.8704168538188711e+01 0 0 0
102 1 1 -3.5660735653714211e+00 -9.4421096571554652e-01 -8.8425185567181074e+01 0 0 0
103 1 1 -3.2814462315212301e+00 -8.5939932991771950e-01 -8.7460425992416290e+01 0 0 0
104 1 1 -2.8893126264390294e+00 -1.0977447033370251e+00 -8.6601175810277709e+01 0 0 0
105 1 1 -2.4488142611994963e+00 -1.6387951395810261e+00 -8.5897483243184055e+01 0 0 0
106 1 1 -2.4221297405878888e+00 -2.0336166729499858e+00 -8.5053647542962409e+01 0 0 0
109 1 1 1.4923120564518533e-01 -3.2572473373937498e+00 -8.4919861036490374e+01 0 0 0
107 1 1 -1.7101984566058879e+00 -2.7215006527986128e+00 -8.4810533440613895e+01 0 0 0
108 1 1 -7.6980946452159682e-01 -2.8873265483978856e+00 -8.4959856750217099e+01 0 0 0
111 1 1 1.9829391809208987e+00 -3.3543805249883287e+00 -8.4530106941455585e+01 0 0 0
110 1 1 1.0257248561833798e+00 -3.3721530747543991e+00 -8.4638122477368583e+01 0 0 0
113 1 1 3.2199962169497782e+00 -4.1300371702015504e+00 -8.3225182537361562e+01 0 0 0
112 1 1 2.5984120147041265e+00 -3.6252573634615426e+00 -8.3831263368697904e+01 0 0 0
114 1 1 3.3551214806835428e+00 -4.7943448370460615e+00 -8.2580150608383704e+01 0 0 0
157 1 1 -7.3204915687582766e+00 -7.8677436481368881e+00 -8.2355606417113620e+01 0 0 0
159 1 1 -6.2458856828332010e+00 -9.2849326359134832e+00 -8.1930930845356485e+01 0 0 0
158 1 1 -6.6165508378718894e+00 -8.4952722780743386e+00 -8.2321306564064912e+01 0 0 0
156 1 1 -8.0676935377318983e+00 -7.3505836913775573e+00 -8.1972451997100265e+01 0 0 0
115 1 1 2.9451838834431983e+00 -5.5952147731046606e+00 -8.2105260588862933e+01 0 0 0
116 1 1 2.2733243207240892e+00 -6.0590658103558130e+00 -8.1604648723817590e+01 0 0 0
160 1 1 -6.2740531120325533e+00 -1.0219729033320158e+01 -8.1543990575547113e+01 0 0 0
161 1 1 -6.2972798179314324e+00 -1.0982436326599252e+01 -8.1019760952506317e+01 0 0 0
155 1 1 -8.1813886715228019e+00 -6.9272535955093115e+00 -8.1131085192635311e+01 0 0 0
154 1 1 -8.1740128279905928e+00 -6.6371784441847126e+00 -8.0192952652063582e+01 0 0 0
153 1 1 -8.7769220389653402e+00 -6.2465495169229088e+00 -7.9544358813045207e+01 0 0 0
117 1 1 1.6317908048213783e+00 -6.7374403357985093e+00 -8.1457234085605307e+01 0 0 0
162 1 1 -5.9457838333406725e+00 -1.1054102084307202e+01 -8.0098136820423392e+01 0 0 0
163 1 1 -5.5459019810043264e+00 -1.0723395125193964e+01 -7.9242257062375373e+01 0 0 0
152 1 1 -9.1263286742714538e+00 -5.9763651431511065e+00 -7.8623451391883393e+01 0 0 0
118 1 1 1.1278862407484409e+00 -7.5146472988399999e+00 -8.1044283844561676e+01 0 0 0
119 1 1 7.0219031355572914e-01 -7.9439992218405058e+00 -8.0203619800656526e+01 0 0 0
164 1 1 -5.2360193963628490e+00 -1.0576725995614643e+01 -7.8268383888854174e+01 0 0 0
150 1 1 -1.0320097814891099e+01 -5.8664646776550970e+00 -7.7234500521574631e+01 0 0 0
151 1 1 -9.6729216330717644e+00 -5.8344594453381395e+00 -7.7934683007126964e+01 0 0 0
122 1 1 -1.1175409403238075e+00 -6.9211559831777842e+00 -7.8186104663092451e+01 0 0 0
121 1 1 -3.1814186244592579e-01 -7.3051132005136301e+00 -7.8670938549582587e+01 0 0 0
120 1 1 1.5833329512890379e-01 -7.7071716468155858e+00 -7.9412670786459415e+01 0 0 0
123 1 1 -1.7745804913900762e+00 -6.7164426207812635e+00 -7.7499903847418210e+01 0 0 0
165 1 1 -4.8371471649295996e+00 -1.0350846014361901e+01 -7.7404431944231561e+01 0 0 0
149 1 1 -1.1082568105077298e+01 -5.6865484381563558e+00 -7.6716813826994482e+01 0 0 0
148 1 1 -1.1989026653385366e+01 -5.4382537933330148e+00 -7.6566033219502913e+01 0 0 0
124 1 1 -2.3442267978192382e+00 -6.3008786921968003e+00 -7.6891810670010912e+01 0 0 0
125 1 1 -2.3662010379778891e+00 -5.6587428997004574e+00 -7.6151718639216668e+01 0 0 0
166 1 1 -4.7498442003882655e+00 -1.0248096230840648e+01 -7.6393958513357489e+01 0 0 0
167 1 1 -4.6562190168352542e+00 -9.7724437582266912e+00 -7.5574818886885041e+01 0 0 0
147 1 1 -1.2362110643494349e+01 -4.6609239830130322e+00 -7.6074353261864047e+01 0 0 0
146 1 1 -1.2528457010072136e+01 -3.8270406828343875e+00 -7.5601414072575963e+01 0 0 0
145 1 1 -1.2743686993003811e+01 -3.1355676206175667e+00 -7.4923470977555155e+01 0 0 0
126 1 1 -2.6117498976473388e+00 -5.1719854064425856e+00 -7.5389342112430683e+01 0 0 0
127 1 1 -2.6874778618504616e+00 -4.7231265016266128e+00 -7.4442970957692907e+01 0 0 0
128 1 1 -2.7452790729099679e+00 -3.8438314437098717e+00 -7.3936441877247617e+01 0 0 0
129 1 1 -2.8358216247707757e+00 -2.8836964394743907e+00 -7.3630544390065424e+01 0 0 0
168 1 1 -4.6218157880879476e+00 -9.3810027634951005e+00 -7.4706062489355801e+01 0 0 0
169 1 1 -4.7051944615533507e+00 -9.1299304252070819e+00 -7.3794774208838206e+01 0 0 0
144 1 1 -1.2570919032397200e+01 -2.3024097902848695e+00 -7.4409399666713242e+01 0 0 0
130 1 1 -2.9565399387004008e+00 -2.0133665552157827e+00 -7.3312656903047355e+01 0 0 0
131 1 1 -2.8521317760813902e+00 -1.1641284551210500e+00 -7.2875889275020882e+01 0 0 0
170 1 1 -4.5351821790886557e+00 -8.8197391498874094e+00 -7.2898137547278964e+01 0 0 0
171 1 1 -4.3588596304681015e+00 -8.4816396739812578e+00 -7.1983214271974617e+01 0 0 0
143 1 1 -1.2546272802412860e+01 -1.5815435716690431e+00 -7.3799110100428535e+01 0 0 0
142 1 1 -1.2151967882815827e+01 -7.2342438568498457e-01 -7.3385430840404851e+01 0 0 0
135 1 1 -6.1060695890666237e+00 6.8038460367245090e-01 -7.2474239804025075e+01 0 0 0
133 1 1 -4.3380547760259605e+00 -4.4824318282236861e-02 -7.2714570239132669e+01 0 0 0
134 1 1 -5.1853592817226630e+00 2.9461570957641747e-01 -7.2773397741219227e+01 0 0 0
132 1 1 -3.5603658334370638e+00 -5.2497582449560376e-01 -7.2906172103630695e+01 0 0 0
172 1 1 -4.1672180167895991e+00 -8.3541875619430410e+00 -7.1032872333915492e+01 0 0 0
173 1 1 -4.3639796219394231e+00 -7.7743675523186946e+00 -7.0305633309125767e+01 0 0 0
141 1 1 -1.1351561590460443e+01 -2.4281887189656864e-01 -7.3176565615903158e+01 0 0 0
140 1 1 -1.0557628765330696e+01 3.3796763725225304e-01 -7.2987855334180239e+01 0 0 0
139 1 1 -9.7179496325792325e+00 9.2284008216212066e-01 -7.2787135785239201e+01 0 0 0
138 1 1 -8.8937803759053420e+00 1.3645232988931129e+00 -7.2589726102824827e+01 0 0 0
136 1 1 -7.0151850594859706e+00 1.0124560347803084e+00 -7.2442741083431315e+01 0 0 0
137 1 1 -7.9854565661240802e+00 1.3536890543680116e+00 -7.2350491143159090e+01 0 0 0
174 1 1 -4.1423322276964800e+00 -7.2028031312509215e+00 -6.9534713940093354e+01 0 0 0
197 1 1 6.7081210286054365e+00 -1.1426594063949022e+01 -6.8652932272407938e+01 0 0 0
196 1 1 6.7852407258808904e+00 -1.0434633603915753e+01 -6.8853177923388486e+01 0 0 0
195 1 1 7.1064040556168209e+00 -9.5105715388843919e+00 -6.8768081935874733e+01 0 0 0
194 1 1 6.7923147399792612e+00 -8.6220832652322166e+00 -6.8548343869611557e+01 0 0 0
193 1 1 6.5561139112008524e+00 -7.6883828367158724e+00 -6.8736709603758825e+01 0 0 0
192 1 1 6.3187348895299884e+00 -6.7581870953669707e+00 -6.8456190808610188e+01 0 0 0
191 1 1 5.8613638677127460e+00 -6.3057012451206944e+00 -6.7787720226778291e+01 0 0 0
175 1 1 -4.0028519721386866e+00 -6.5608388372374113e+00 -6.8754373400953895e+01 0 0 0
190 1 1 5.2496582379456092e+00 -5.9026701242502453e+00 -6.7146286868687284e+01 0 0 0
199 1 1 6.4353719418882926e+00 -1.2217697146390503e+01 -6.6930076976903692e+01 0 0 0
198 1 1 6.4220603613562455e+00 -1.1956248221116086e+01 -6.7871013692242300e+01 0 0 0
176 1 1 -3.7258668186975092e+00 -5.7553628487256301e+00 -6.8288260451924529e+01 0 0 0
177 1 1 -3.4240531399709728e+00 -5.4454224040377355e+00 -6.7356500319547436e+01 0 0 0
188 1 1 4.7073491335569164e+00 -4.8258144228455899e+00 -6.5676614842971645e+01 0 0 0
189 1 1 4.8180634522614367e+00 -5.2669437693768764e+00 -6.6501253359749953e+01 0 0 0
187 1 1 4.4023439703528116e+00 -4.3783371004225780e+00 -6.4889781453974962e+01 0 0 0
200 1 1 6.2693139818533936e+00 -1.2485650325397852e+01 -6.5992837022247286e+01 0 0 0
178 1 1 -2.8194395469261031e+00 -5.0099094732457159e+00 -6.6671421676157593e+01 0 0 0
179 1 1 -2.1421887581157715e+00 -4.8591569281126379e+00 -6.6006597816306297e+01 0 0 0
180 1 1 -1.6552092865467429e+00 -4.3951568887850279e+00 -6.5282626040832426e+01 0 0 0
181 1 1 -8.7594061950513302e-01 -4.3354872174275805e+00 -6.4686862421979029e+01 0 0 0
182 1 1 -1.6691843192626910e-01 -4.6224495068692812e+00 -6.4077692271096296e+01 0 0 0
183 1 1 7.6524583444379057e-01 -4.6437926978158801e+00 -6.3833645699290798e+01 0 0 0
184 1 1 1.7094436082777618e+00 -4.3445473359664852e+00 -6.3959200573557659e+01 0 0 0
185 1 1 2.5982555387238477e+00 -3.9947591368160986e+00 -6.4119322769195790e+01 0 0 0
186 1 1 3.5585035523337534e+00 -4.0131580837138898e+00 -6.4434786192027005e+01 0 0 0
202 1 1 5.9280482959489911e+00 -1.3688657520549974e+01 -6.4506835564203129e+01 0 0 0
201 1 1 5.8984197984898259e+00 -1.3000736121769359e+01 -6.5222645945899728e+01 0 0 0
203 1 1 5.9986826716891049e+00 -1.4396885127443586e+01 -6.3891955764199373e+01 0 0 0
205 1 1 6.1319933695239079e+00 -1.5733306362999405e+01 -6.2469068397672366e+01 0 0 0
204 1 1 6.1110662828917892e+00 -1.5087000690699430e+01 -6.3175172778397261e+01 0 0 0
206 1 1 5.9072187242761345e+00 -1.6440047228748842e+01 -6.1896583849958979e+01 0 0 0
209 1 1 4.1564222889299938e+00 -1.7435732089030289e+01 -5.9866263774658471e+01 0 0 0
207 1 1 5.1432365553678050e+00 -1.6637856586472239e+01 -6.1287983463459462e+01 0 0 0
208 1 1 4.6779938918032560e+00 -1.7098799231883486e+01 -6.0591258746637465e+01 0 0 0
211 1 1 2.5152691509133733e+00 -1.6902427680869156e+01 -5.9166228565032000e+01 0 0 0
210 1 1 3.3445277018067832e+00 -1.7067797576003773e+01 -5.9603206080917765e+01 0 0 0
217 1 1 5.0058318986080708e-01 -2.0082852281409242e+01 -5.5876261480739842e+01 0 0 0
215 1 1 3.2133156232647925e-01 -1.8206731185216515e+01 -5.6385040410703525e+01 0 0 0
216 1 1 2.7760796462456305e-01 -1.9139459563209602e+01 -5.6034311120562855e+01 0 0 0
214 1 1 8.6985991918502115e-01 -1.7562218299195290e+01 -5.6913166662082666e+01 0 0 0
213 1 1 1.2572188653995815e+00 -1.7375562336818163e+01 -5.7751942755633529e+01 0 0 0
212 1 1 1.7346193319960908e+00 -1.7192930117407478e+01 -5.8640232670399229e+01 0 0 0
314 1 1 -1.1734920123321221e+01 -5.9333552109790979e+00 -5.7574519058328605e+01 0 0 0
315 1 1 -1.1055659972959987e+01 -6.5635811252655758e+00 -5.7371766574790861e+01 0 0 0
313 1 1 -1.2391019253735509e+01 -5.2314969198996311e+00 -5.7354180098787019e+01 0 0 0
312 1 1 -1.3224932868152170e+01 -4.8053778382824079e+00 -5.7539174276666543e+01 0 0 0
220 1 1 1.9062919147733421e+00 -2.2457734811605068e+01 -5.5230477406677657e+01 0 0 0
219 1 1 1.7995007741737117e+00 -2.1506712899800373e+01 -5.5602037353794266e+01 0 0 0
218 1 1 1.1850299868724321e+00 -2.0717590709930906e+01 -5.5703018736588795e+01 0 0 0
321 1 1 -6.6270115183493390e+00 -9.1324016692866756e+00 -5.5714672478972041e+01 0 0 0
320 1 1 -7.4763234163023196e+00 -9.3680618226569532e+00 -5.6022039417786900e+01 0 0 0
318 1 1 -8.9901633163093795e+00 -8.3719535435531967e+00 -5.6577349668290260e+01 0 0 0
319 1 1 -8.3782530385082001e+00 -9.0428658771571495e+00 -5.6256534634180852e+01 0 0 0
316 1 1 -1.0502708718395931e+01 -7.2464942266213352e+00 -5.7025824564077318e+01 0 0 0
317 1 1 -9.6901128466031619e+00 -7.8061459319813409e+00 -5.6936154807007931e+01 0 0 0
311 1 1 -1.3973671104891482e+01 -4.1789301399362655e+00 -5.7864072194946296e+01 0 0 0
224 1 1 -2.7493575257001651e-01 -2.5316066505271682e+01 -5.4335359086701850e+01 0 0 0
223 1 1 4.6429387730982657e-01 -2.4811212959567250e+01 -5.4668207561797786e+01 0 0 0
222 1 1 1.2013224080034108e+00 -2.4150111012658897e+01 -5.4657026282620549e+01 0 0 0
221 1 1 1.6072491430386640e+00 -2.3324835565217590e+01 -5.4857848891114784e+01 0 0 0
323 1 1 -4.9602201808436082e+00 -9.9321476969690430e+00 -5.5469569233983947e+01 0 0 0
324 1 1 -4.2301121803635358e+00 -1.0489154977541133e+01 -5.5246183000967470e+01 0 0 0
322 1 1 -5.6457332959209197e+00 -9.2913997691652686e+00 -5.5736540173914904e+01 0 0 0
309 1 1 -1.4978147420002395e+01 -3.2001348736201547e+00 -5.6701018334467172e+01 0 0 0
310 1 1 -1.4433636485503863e+01 -3.4662959539469189e+00 -5.7442197382662592e+01 0 0 0
225 1 1 -1.2053121869864858e+00 -2.5662682646552351e+01 -5.4134166857006306e+01 0 0 0
331 1 1 1.1626292958662330e+00 -1.3508483643042618e+01 -5.4250761199245275e+01 0 0 0
333 1 1 2.4029178419821542e+00 -1.4165620094651539e+01 -5.3177515383015248e+01 0 0 0
332 1 1 1.7439709800581178e+00 -1.4135070670149146e+01 -5.3873711744825634e+01 0 0 0
334 1 1 2.9287323273417756e+00 -1.4250516083025504e+01 -5.2411310750073909e+01 0 0 0
335 1 1 3.6573772056659348e+00 -1.4141167592034545e+01 -5.1761527947557205e+01 0 0 0
325 1 1 -3.6025311554352482e+00 -1.1278047031892770e+01 -5.5482433746594076e+01 0 0 0
326 1 1 -2.8994080248949206e+00 -1.1933366430746801e+01 -5.5500781410958304e+01 0 0 0
308 1 1 -1.5377681337395293e+01 -2.9979783774688360e+00 -5.5743012020315184e+01 0 0 0
226 1 1 -2.0873738209926493e+00 -2.5841315199290719e+01 -5.3759789862796779e+01 0 0 0
227 1 1 -2.9813545459336295e+00 -2.5477621608007016e+01 -5.4087251093763221e+01 0 0 0
228 1 1 -3.2240352442327063e+00 -2.4520758412513150e+01 -5.4060407777801039e+01 0 0 0
229 1 1 -3.5914066169883290e+00 -2.3646081554511262e+01 -5.4259806171525433e+01 0 0 0
230 1 1 -3.6888474883681810e+00 -2.2731575049652648e+01 -5.4440559779917130e+01 0 0 0
232 1 1 -4.1014383047858045e+00 -2.0880451560556896e+01 -5.4455351633074123e+01 0 0 0
231 1 1 -3.9721894086020035e+00 -2.1798344746168848e+01 -5.4464617135472793e+01 0 0 0
233 1 1 -4.4294417537114770e+00 -2.0093288403030666e+01 -5.4058692946868675e+01 0 0 0
330 1 1 4.8595010260580346e-01 -1.3056149189184033e+01 -5.4750773939437238e+01 0 0 0
336 1 1 4.4981039170060200e+00 -1.3912292725998006e+01 -5.1279233752396664e+01 0 0 0
328 1 1 -1.0201103387410024e+00 -1.2558049970929392e+01 -5.5903907450480148e+01 0 0 0
329 1 1 -2.7981626080849542e-01 -1.2837573640264468e+01 -5.5297563181206925e+01 0 0 0
337 1 1 5.2765043580214073e+00 -1.3638934905713029e+01 -5.0835841923776108e+01 0 0 0
327 1 1 -2.0309799825831694e+00 -1.2343657800475361e+01 -5.5811101163882739e+01 0 0 0
307 1 1 -1.5588347939800466e+01 -2.7740586052759801e+00 -5.4879969036511945e+01 0 0 0
234 1 1 -4.6774101490455493e+00 -1.9208887186725271e+01 -5.3818144489993983e+01 0 0 0
235 1 1 -4.8735125409319275e+00 -1.8260323696942166e+01 -5.3907657217880484e+01 0 0 0
239 1 1 -5.8793907160151537e+00 -1.4818434255049230e+01 -5.2589625811619996e+01 0 0 0
236 1 1 -5.1631460276634451e+00 -1.7342770788178889e+01 -5.3921133151706101e+01 0 0 0
242 1 1 -7.5029192346358364e+00 -1.3502017431155386e+01 -5.0658568264487329e+01 0 0 0
241 1 1 -6.8841789486442604e+00 -1.4189893731010814e+01 -5.1045132625748465e+01 0 0 0
240 1 1 -6.4282851957507008e+00 -1.4517515017164165e+01 -5.1849496875299273e+01 0 0 0
244 1 1 -8.3516720663605319e+00 -1.2244108520332356e+01 -4.9526584422280010e+01 0 0 0
243 1 1 -8.1154617375731739e+00 -1.2980617687214032e+01 -5.0110794713886911e+01 0 0 0
338 1 1 5.9260009972381535e+00 -1.3730687457914788e+01 -5.0178030532328528e+01 0 0 0
245 1 1 -9.1113922731586889e+00 -1.1763419347654882e+01 -4.9337318812359705e+01 0 0 0
306 1 1 -1.5637646073603133e+01 -3.0183567456735276e+00 -5.3920945362102934e+01 0 0 0
305 1 1 -1.5386561153807204e+01 -3.0428970327729985e+00 -5.3001546828576110e+01 0 0 0
238 1 1 -5.5709879836405527e+00 -1.5460203121605726e+01 -5.3262218749095808e+01 0 0 0
237 1 1 -5.3130985967797875e+00 -1.6401365469570404e+01 -5.3690508920541063e+01 0 0 0
339 1 1 6.0283064271706639e+00 -1.2990317422011175e+01 -4.9554224772113997e+01 0 0 0
340 1 1 6.4900255596145904e+00 -1.2696387478181672e+01 -4.8724446889362170e+01 0 0 0
247 1 1 -1.0832685957943593e+01 -1.0820142742257957e+01 -4.8821457320359826e+01 0 0 0
246 1 1 -9.9668589374744698e+00 -1.1400866871131340e+01 -4.9037017031565412e+01 0 0 0
304 1 1 -1.5239565541143573e+01 -2.6878070805515466e+00 -5.2074966310425324e+01 0 0 0
341 1 1 6.9210369071341091e+00 -1.2780764172893843e+01 -4.7845006437076570e+01 0 0 0
342 1 1 7.1809495067295712e+00 -1.3131514126065282e+01 -4.6995017848409219e+01 0 0 0
248 1 1 -1.1642312122405842e+01 -1.0425904441390141e+01 -4.9025417282761254e+01 0 0 0
249 1 1 -1.2300831433087231e+01 -9.7071517721885936e+00 -4.9031851409415246e+01 0 0 0
250 1 1 -1.2670812030915480e+01 -8.8167410941945796e+00 -4.9055133233948894e+01 0 0 0
251 1 1 -1.2884688125272167e+01 -7.8790839611755619e+00 -4.8841541899694079e+01 0 0 0
252 1 1 -1.2769694796346460e+01 -6.9370120803556938e+00 -4.8488619295504812e+01 0 0 0
253 1 1 -1.2207373006869981e+01 -6.2457533099636597e+00 -4.8727435881354239e+01 0 0 0
254 1 1 -1.1686132174803541e+01 -5.5309402402132521e+00 -4.9161018763574880e+01 0 0 0
264 1 1 -4.2003600743316731e+00 -6.6224693217187145e+00 -4.8058654712298932e+01 0 0 0
258 1 1 -8.3475795108393829e+00 -3.9198666862214138e+00 -4.9539355467141242e+01 0 0 0
260 1 1 -6.4343167589150605e+00 -3.9556293920668222e+00 -4.9341729727570218e+01 0 0 0
259 1 1 -7.4189272551895868e+00 -3.8104475371053388e+00 -4.9359627260590322e+01 0 0 0
261 1 1 -5.6288883426940313e+00 -4.4635393819550142e+00 -4.9113186486337035e+01 0 0 0
262 1 1 -5.2573337125589532e+00 -5.4137345545862114e+00 -4.8946797153379023e+01 0 0 0
263 1 1 -4.7871425278518016e+00 -6.2110097617783504e+00 -4.8710884068672122e+01 0 0 0
301 1 1 -1.5479300504222964e+01 -2.8768641816778522e+00 -4.9355302404186645e+01 0 0 0
302 1 1 -1.5628437947449159e+01 -2.7881060288241568e+00 -5.0276476625850840e+01 0 0 0
303 1 1 -1.5313644512172699e+01 -2.5859826346778467e+00 -5.1149380505541806e+01 0 0 0
343 1 1 6.9173915991286110e+00 -1.2801326353934916e+01 -4.6087956393568376e+01 0 0 0
266 1 1 -4.0956471862469606e+00 -8.0124362112584180e+00 -4.7318683545055890e+01 0 0 0
265 1 1 -3.7178785734245881e+00 -7.1355540916348161e+00 -4.7487067934690550e+01 0 0 0
255 1 1 -1.0861244381266943e+01 -5.0692608892371593e+00 -4.9387251186063622e+01 0 0 0
256 1 1 -1.0133605208348516e+01 -4.3836255506177206e+00 -4.9525104615034927e+01 0 0 0
300 1 1 -1.5797531001974919e+01 -2.9945507380096026e+00 -4.8414177914447606e+01 0 0 0
257 1 1 -9.2848328530767930e+00 -4.0614981845864406e+00 -4.9655204653258409e+01 0 0 0
348 1 1 3.5680085112273137e+00 -1.3243903396401693e+01 -4.3212822585834019e+01 0 0 0
347 1 1 4.4805933600338221e+00 -1.3131892126004457e+01 -4.3570659210881807e+01 0 0 0
344 1 1 6.7119687760778373e+00 -1.2840580986844000e+01 -4.5158994239539318e+01 0 0 0
345 1 1 6.0861401007220142e+00 -1.2828219696271573e+01 -4.4413720989104675e+01 0 0 0
270 1 1 -5.9707640762278578e+00 -1.0367429544914211e+01 -4.5639148335626551e+01 0 0 0
269 1 1 -6.1365590928388682e+00 -9.6561248827387889e+00 -4.6236979608722493e+01 0 0 0
268 1 1 -5.7302238617792867e+00 -8.9840964957845841e+00 -4.6824570447941255e+01 0 0 0
267 1 1 -5.0537680592906762e+00 -8.2401206813829369e+00 -4.7095840276898421e+01 0 0 0
299 1 1 -1.5881847828736381e+01 -3.0396608332279689e+00 -4.7388306170042917e+01 0 0 0
352 1 1 9.7818069036150049e-02 -1.2249782910970561e+01 -4.4408393454417606e+01 0 0 0
351 1 1 9.1422509636428761e-01 -1.2500350071676749e+01 -4.3974814495374410e+01 0 0 0
273 1 1 -6.1545514926667506e+00 -1.2732131730973489e+01 -4.4043300026605678e+01 0 0 0
272 1 1 -6.0060761628352850e+00 -1.2018739851713290e+01 -4.4821858303310435e+01 0 0 0
350 1 1 1.7097590969567495e+00 -1.2921573861127667e+01 -4.3609794344115926e+01 0 0 0
349 1 1 2.6295640680799286e+00 -1.3243887245256509e+01 -4.3418141295678048e+01 0 0 0
346 1 1 5.4887046124153755e+00 -1.3070835479865591e+01 -4.3715362490547541e+01 0 0 0
271 1 1 -6.1418647328496982e+00 -1.1146263583730761e+01 -4.5116781871196231e+01 0 0 0
298 1 1 -1.5929527726492202e+01 -2.9097138477334701e+00 -4.6392586343687150e+01 0 0 0
297 1 1 -1.6069214310087659e+01 -3.1683723787475908e+00 -4.5498745518386016e+01 0 0 0
277 1 1 -8.5320151979651921e+00 -1.4469137993260137e+01 -4.2492827893714889e+01 0 0 0
276 1 1 -7.6689428608430097e+00 -1.4085136458100283e+01 -4.2327452308800247e+01 0 0 0
274 1 1 -6.3485055694346491e+00 -1.3254479132430973e+01 -4.3332122489711253e+01 0 0 0
275 1 1 -6.9113107356972812e+00 -1.3639535982388963e+01 -4.2596405788537844e+01 0 0 0
353 1 1 -7.9856277166988032e-01 -1.2020635240726770e+01 -4.4824236394036383e+01 0 0 0
355 1 1 -2.1868448091008976e+00 -1.0833243721420653e+01 -4.5253888951311730e+01 0 0 0
354 1 1 -1.3359366415363239e+00 -1.1234999067673131e+01 -4.4974867531505339e+01 0 0 0
360 1 1 -5.8166760214930626e+00 -9.7686437961631576e+00 -4.4267384683061969e+01 0 0 0
359 1 1 -5.4204872951473320e+00 -1.0514701130099960e+01 -4.4749280792178077e+01 0 0 0
357 1 1 -3.9580926087088577e+00 -1.0777701106416480e+01 -4.5868174589358247e+01 0 0 0
358 1 1 -4.6524231533192282e+00 -1.0857051737262669e+01 -4.5260951140113576e+01 0 0 0
356 1 1 -3.0169680754986352e+00 -1.0684548138426601e+01 -4.5697509903622020e+01 0 0 0
296 1 1 -1.6252886878552776e+01 -3.8031762999361236e+00 -4.4829818957453043e+01 0 0 0
278 1 1 -9.4612482385602412e+00 -1.4538469211148856e+01 -4.2425187979914895e+01 0 0 0
279 1 1 -1.0388318297449123e+01 -1.4111098838641990e+01 -4.2523396171225599e+01 0 0 0
362 1 1 -7.1488845042177660e+00 -8.4254830698469778e+00 -4.3988871374843036e+01 0 0 0
361 1 1 -6.3701920883685030e+00 -9.0721588547342265e+00 -4.3907041286057854e+01 0 0 0
293 1 1 -1.7740122597623248e+01 -6.1032841801468543e+00 -4.3719422098330924e+01 0 0 0
294 1 1 -1.7290307577069601e+01 -5.2226714464941946e+00 -4.4059841492048172e+01 0 0 0
295 1 1 -1.6676287036143314e+01 -4.5504313461222434e+00 -4.4425001926704994e+01 0 0 0
280 1 1 -1.1322263279473818e+01 -1.4005286987728340e+01 -4.2435100995264094e+01 0 0 0
281 1 1 -1.2238764810000111e+01 -1.3585464301521778e+01 -4.2269829185398223e+01 0 0 0
282 1 1 -1.3075961323753116e+01 -1.3023913098557111e+01 -4.1920943801900741e+01 0 0 0
401 1 1 -1.3803315141451358e+00 -1.0231025621718397e+01 -4.0978607576511585e+01 0 0 0
402 1 1 -1.2184585782818174e+00 -9.4632962525284690e+00 -4.1689474124405002e+01 0 0 0
403 1 1 -1.3227202319584987e+00 -8.5308752515391060e+00 -4.1954795223500440e+01 0 0 0
363 1 1 -7.9378115761166805e+00 -7.8824549140229063e+00 -4.3848765930710897e+01 0 0 0
404 1 1 -1.1708144567951830e+00 -7.5427701356336243e+00 -4.2129480452205200e+01 0 0 0
291 1 1 -1.8946441259192717e+01 -7.5911760420334735e+00 -4.3462723382064489e+01 0 0 0
364 1 1 -8.7054147392422703e+00 -7.4601747553175137e+00 -4.3359535462413497e+01 0 0 0
292 1 1 -1.8553479412999732e+01 -6.8270263983313360e+00 -4.3834927748252703e+01 0 0 0
283 1 1 -1.3535988040713004e+01 -1.2210729905024394e+01 -4.1808766422062988e+01 0 0 0
284 1 1 -1.4435485762733215e+01 -1.1840052156854130e+01 -4.1729989014211704e+01 0 0 0
285 1 1 -1.5318340053545970e+01 -1.1379208832950521e+01 -4.1799437640100614e+01 0 0 0
287 1 1 -1.6917636357533819e+01 -1.0475652836440045e+01 -4.1984816132933801e+01 0 0 0
286 1 1 -1.6137027354719748e+01 -1.0959493621102318e+01 -4.1669773326011146e+01 0 0 0
288 1 1 -1.7579556347861978e+01 -9.8005255703075100e+00 -4.2303588125294695e+01 0 0 0
399 1 1 -1.8886852134411511e+00 -1.0947777431601704e+01 -3.9325235430187703e+01 0 0 0
400 1 1 -1.4560461643497065e+00 -1.0716475343417136e+01 -4.0130530328749735e+01 0 0 0
289 1 1 -1.8298963586911658e+01 -9.2181329915353132e+00 -4.2593114104902071e+01 0 0 0
405 1 1 -8.0219904059590630e-01 -6.6786966184592638e+00 -4.2078691555564632e+01 0 0 0
290 1 1 -1.8590525367002730e+01 -8.3107162566158319e+00 -4.2988216612161509e+01 0 0 0
365 1 1 -9.3698362254435530e+00 -7.1472657119019356e+00 -4.2738519717285143e+01 0 0 0
406 1 1 -2.0180363967630652e-01 -5.9943363928002587e+00 -4.1843959249257317e+01 0 0 0
366 1 1 -1.0075977622333578e+01 -6.7319869527374872e+00 -4.2327351848687634e+01 0 0 0
367 1 1 -1.0754694194174400e+01 -6.3192553745304512e+00 -4.1815352553499743e+01 0 0 0
407 1 1 1.7170419370693049e-01 -5.1584451370470958e+00 -4.1729345578836565e+01 0 0 0
396 1 1 -3.9877553381132147e+00 -1.1699355257870602e+01 -3.7822909756167931e+01 0 0 0
397 1 1 -3.0298442355819604e+00 -1.1751908628059100e+01 -3.8125444535790649e+01 0 0 0
398 1 1 -2.3007728505274496e+00 -1.1211590916424525e+01 -3.8459770156341662e+01 0 0 0
368 1 1 -1.1507208670578079e+01 -6.2126657438762161e+00 -4.1080685411631926e+01 0 0 0
409 1 1 3.6410606887471669e-01 -3.3779483540121036e+00 -4.1138416843979954e+01 0 0 0
408 1 1 3.7584939120214073e-01 -4.2444582824757431e+00 -4.1481405257909714e+01 0 0 0
369 1 1 -1.2150305914563033e+01 -6.4577812444808389e+00 -4.0336627845084934e+01 0 0 0
410 1 1 2.5103980777392632e-01 -2.8151254516987709e+00 -4.0446529151240888e+01 0 0 0
395 1 1 -4.8362961619891518e+00 -1.1651547394862030e+01 -3.7328720628868190e+01 0 0 0
394 1 1 -5.5345448660891954e+00 -1.0994721388656925e+01 -3.7181637914194496e+01 0 0 0
370 1 1 -1.2769203849627171e+01 -6.6609712535335062e+00 -3.9642161299070743e+01 0 0 0
411 1 1 -3.0407286129549610e-01 -2.4032756038278049e+00 -3.9785026716663687e+01 0 0 0
393 1 1 -6.3812331563255666e+00 -1.0365380096731139e+01 -3.6919118239870180e+01 0 0 0
392 1 1 -6.9395205735942405e+00 -9.7261105185321863e+00 -3.6438998319027746e+01 0 0 0
372 1 1 -1.3344594692056669e+01 -7.4582023403355029e+00 -3.7784908517430019e+01 0 0 0
371 1 1 -1.3153745925145143e+01 -6.9316447339227922e+00 -3.8701411083148741e+01 0 0 0
412 1 1 -7.7497380311207431e-01 -1.9432522346043677e+00 -3.9031852372117463e+01 0 0 0
413 1 1 -9.8653161583505511e-01 -1.7944065740130615e+00 -3.8079935029688841e+01 0 0 0
391 1 1 -7.3457569968077570e+00 -9.1559238946109591e+00 -3.5787655536143966e+01 0 0 0
390 1 1 -7.8283038332549841e+00 -8.4083265982484896e+00 -3.5323357097687264e+01 0 0 0
374 1 1 -1.3342595595726394e+01 -7.1763750891564868e+00 -3.5961777537571365e+01 0 0 0
373 1 1 -1.3148451188883275e+01 -7.5848048363934106e+00 -3.6853316717092078e+01 0 0 0
414 1 1 -1.4120420243784251e+00 -1.9065853788260894e+00 -3.7225049668791641e+01 0 0 0
389 1 1 -8.4425756073656117e+00 -8.2079812573444375e+00 -3.4611641718424174e+01 0 0 0
388 1 1 -8.9347539175141506e+00 -7.9950047964241922e+00 -3.3805042846517416e+01 0 0 0
375 1 1 -1.3162424820538060e+01 -6.5478573928201067e+00 -3.5261122432991215e+01 0 0 0
376 1 1 -1.2630633266781434e+01 -6.0699251259797444e+00 -3.4619911657031494e+01 0 0 0
415 1 1 -1.9443650845568621e+00 -1.9474667331435298e+00 -3.6394188429431750e+01 0 0 0
416 1 1 -2.1808227924438999e+00 -1.7648898331069180e+00 -3.5455073096914312e+01 0 0 0
387 1 1 -8.9060184917762619e+00 -7.4570943332487181e+00 -3.2946207871093350e+01 0 0 0
386 1 1 -8.6595066214148684e+00 -7.2437105106970696e+00 -3.2038035288360057e+01 0 0 0
377 1 1 -1.2070428125761136e+01 -6.0450939608012240e+00 -3.3884639310824760e+01 0 0 0
417 1 1 -2.8211477775658156e+00 -1.9759846756836785e+00 -3.4795185003634757e+01 0 0 0
384 1 1 -9.2189787839732258e+00 -6.4639218381014043e+00 -3.0411266753010892e+01 0 0 0
385 1 1 -8.6514589903180301e+00 -6.9917917109435113e+00 -3.1075287631674705e+01 0 0 0
380 1 1 -1.1770344936210929e+01 -4.9046051319951527e+00 -3.1303792149971851e+01 0 0 0
378 1 1 -1.1986864931084963e+01 -5.6994450394869300e+00 -3.2996194031295332e+01 0 0 0
379 1 1 -1.1875466181774797e+01 -5.4276034724638196e+00 -3.2093869265411364e+01 0 0 0
418 1 1 -3.4297822101471462e+00 -1.7511734533344141e+00 -3.4107521574395385e+01 0 0 0
382 1 1 -1.0242056814910839e+01 -5.1390408750033174e+00 -3.0260851105938656e+01 0 0 0
383 1 1 -9.6973876395275127e+00 -5.8402191072113165e+00 -2.9872114028974803e+01 0 0 0
381 1 1 -1.1128748243420118e+01 -4.9011910185108158e+00 -3.0593473505453908e+01 0 0 0
419 1 1 -3.8277621345017945e+00 -1.2993502248442084e+00 -3.3318265289311945e+01 0 0 0
420 1 1 -4.0951985697091171e+00 -8.4925099494149103e-01 -3.2549565399388719e+01 0 0 0
441 1 1 -2.3033781399574820e+00 -8.6899968302269741e+00 -3.1318594571087893e+01 0 0 0
440 1 1 -3.2444960248328334e+00 -8.5772490857354313e+00 -3.1107150978037975e+01 0 0 0
439 1 1 -4.1113079648593533e+00 -8.6188953828535215e+00 -3.0644724855074905e+01 0 0 0
438 1 1 -4.9508950805338792e+00 -8.6726437238215723e+00 -3.0209480824088391e+01 0 0 0
437 1 1 -5.3595019395721275e+00 -8.8188958813209304e+00 -2.9350387354216036e+01 0 0 0
461 1 1 6.3563722224826416e+00 -7.5441310041983014e+00 -2.7285000160959655e+01 0 0 0
460 1 1 6.6706910047306618e+00 -7.8192541560306923e+00 -2.6445365615547864e+01 0 0 0
436 1 1 -5.4570145475323928e+00 -8.7411238693557731e+00 -2.8429086852601898e+01 0 0 0
462 1 1 5.8418621835366755e+00 -6.7224426301216704e+00 -2.7455766997689889e+01 0 0 0
421 1 1 -3.7975713993152262e+00 -7.0198318403508619e-01 -3.1606546304964819e+01 0 0 0
442 1 1 -1.3859979858947760e+00 -8.9576898235366080e+00 -3.1482407979283035e+01 0 0 0
443 1 1 -5.6846939415000775e-01 -9.3131462579281852e+00 -3.1061837620409996e+01 0 0 0
459 1 1 6.4667129466127999e+00 -8.2196628086413419e+00 -2.5669754251659324e+01 0 0 0
458 1 1 5.9997983797888130e+00 -8.6384819467525951e+00 -2.4973417528261720e+01 0 0 0
435 1 1 -5.3213366516205118e+00 -8.4302642799455327e+00 -2.7563204394791065e+01 0 0 0
434 1 1 -5.4818737578756362e+00 -8.0711331644810631e+00 -2.6637228068906918e+01 0 0 0
463 1 1 4.9045291457654088e+00 -6.5018985776670659e+00 -2.7492367082378866e+01 0 0 0
422 1 1 -3.6298265945843506e+00 -8.6491917635481774e-01 -3.0680394868538773e+01 0 0 0
423 1 1 -3.4077726783698128e+00 -1.1707884290604831e+00 -2.9792047206029959e+01 0 0 0
444 1 1 6.6795501491779277e-02 -9.4842734266474746e+00 -3.0345687745441506e+01 0 0 0
445 1 1 5.8535367707204577e-01 -9.7368735883067217e+00 -2.9562021569262740e+01 0 0 0
457 1 1 5.2367266190346680e+00 -8.9051816558421653e+00 -2.4404075459757212e+01 0 0 0
433 1 1 -5.4671739905856844e+00 -7.1537031645631695e+00 -2.6281358798793018e+01 0 0 0
464 1 1 4.0342385445090443e+00 -6.1421765316277988e+00 -2.7316649851837521e+01 0 0 0
465 1 1 3.1629434293875907e+00 -5.9563379430758392e+00 -2.7276546643904229e+01 0 0 0
466 1 1 2.3675423096790942e+00 -5.3651314910164229e+00 -2.6960715455450309e+01 0 0 0
424 1 1 -3.5686822924597639e+00 -1.4614748816559815e+00 -2.8827459640151545e+01 0 0 0
446 1 1 1.1624968414889452e+00 -1.0164144355207695e+01 -2.8953283608642977e+01 0 0 0
447 1 1 1.5651620502254733e+00 -1.0847616947196080e+01 -2.8317946296794140e+01 0 0 0
448 1 1 1.7963380052512283e+00 -1.1591318697854206e+01 -2.7735457858045859e+01 0 0 0
449 1 1 2.2498378508665677e+00 -1.2077851365856404e+01 -2.7076233068023672e+01 0 0 0
451 1 1 2.5209200372551468e+00 -1.2753917067141749e+01 -2.5384874541137936e+01 0 0 0
452 1 1 3.0749688776122928e+00 -1.2470028064841440e+01 -2.4647616858613581e+01 0 0 0
453 1 1 3.9132340140855377e+00 -1.2110278986555608e+01 -2.4300017615537218e+01 0 0 0
454 1 1 4.5395115124848191e+00 -1.1448765275077607e+01 -2.4042581552686372e+01 0 0 0
455 1 1 4.9333282811130150e+00 -1.0576549578392617e+01 -2.3945029718643131e+01 0 0 0
456 1 1 4.7463571202384180e+00 -9.6685425540980834e+00 -2.4051782351386350e+01 0 0 0
432 1 1 -5.2832429352419270e+00 -6.3620240376975419e+00 -2.5734209097070313e+01 0 0 0
431 1 1 -4.9740185565585202e+00 -5.4689499381916304e+00 -2.5423888922903338e+01 0 0 0
430 1 1 -4.7690127026404232e+00 -4.5593619908497143e+00 -2.5344154485813505e+01 0 0 0
429 1 1 -5.0216327023314422e+00 -3.6227780413172295e+00 -2.5415114533047582e+01 0 0 0
467 1 1 1.8346062043087978e+00 -4.9510190412508344e+00 -2.6199325721505947e+01 0 0 0
427 1 1 -4.9478613836062761e+00 -2.3484540437115697e+00 -2.6832564070109921e+01 0 0 0
428 1 1 -5.0800800713042928e+00 -2.8257202246077049e+00 -2.6014758152496992e+01 0 0 0
426 1 1 -4.5996365671275994e+00 -1.6301118645473591e+00 -2.7265864916314030e+01 0 0 0
425 1 1 -4.1968758092961194e+00 -1.2880415335822730e+00 -2.8140665146170736e+01 0 0 0
450 1 1 2.2924670881965392e+00 -1.2620861286847038e+01 -2.6317496637001859e+01 0 0 0
468 1 1 1.4931161363693368e+00 -4.3641752619626706e+00 -2.5387890740760774e+01 0 0 0
470 1 1 7.4048928819533977e-01 -3.1384183254523279e+00 -2.4138243182839314e+01 0 0 0
469 1 1 1.3266209276902672e+00 -3.7649535198816491e+00 -2.4599600141223330e+01 0 0 0
498 1 1 -1.2841268381961526e+00 -9.0848232988875033e+00 -2.2142216472425844e+01 0 0 0
499 1 1 -1.3524246037848928e+00 -8.1440256518142871e+00 -2.1995171926346639e+01 0 0 0
471 1 1 5.1089476165711500e-01 -2.3896282703546401e+00 -2.3573942933331967e+01 0 0 0
496 1 1 -8.0806078979116214e-01 -1.0639770513798348e+01 -2.1491726244473654e+01 0 0 0
497 1 1 -1.3460078301166369e+00 -1.0083144356898936e+01 -2.1988446415096966e+01 0 0 0
500 1 1 -1.4677582183977829e+00 -7.3857805355234456e+00 -2.1401719897485282e+01 0 0 0
501 1 1 -1.2708077679227294e+00 -6.5149954358799418e+00 -2.0937808644026564e+01 0 0 0
472 1 1 6.2947239532086297e-01 -1.6530366261254161e+00 -2.2926861205252294e+01 0 0 0
474 1 1 5.0979419316840047e-01 -2.4108259426025824e-01 -2.1842143174558828e+01 0 0 0
473 1 1 8.7336077926370659e-01 -9.4839050555574522e-01 -2.2375078059239048e+01 0 0 0
495 1 1 -6.3684658478895684e-01 -1.1381623905509160e+01 -2.0855632401598541e+01 0 0 0
502 1 1 -1.1837458766272053e+00 -5.9784911107185614e+00 -2.0204594417701809e+01 0 0 0
476 1 1 1.8079868184950762e-01 -6.6290664506590789e-03 -2.0016995492207919e+01 0 0 0
475 1 1 -6.1187076799747147e-03 -1.4691734784631574e-01 -2.1004486378329560e+01 0 0 0
494 1 1 -6.0830414793574805e-01 -1.1803740978224814e+01 -1.9947394704064354e+01 0 0 0
493 1 1 -1.3746571143150144e-01 -1.1774457293763717e+01 -1.9097373120896531e+01 0 0 0
503 1 1 -1.0581460812400343e+00 -5.6392839558833332e+00 -1.9333436611488942e+01 0 0 0
477 1 1 4.5452289324206968e-01 -1.0154206844559591e-01 -1.9099861192389572e+01 0 0 0
492 1 1 3.7442035973255694e-01 -1.1624191600892292e+01 -1.8255798790876280e+01 0 0 0
491 1 1 9.1904493728317882e-01 -1.0828683240696304e+01 -1.8006277207952323e+01 0 0 0
504 1 1 -1.4696959813501820e+00 -5.1286318588488520e+00 -1.8686160619424928e+01 0 0 0
505 1 1 -1.8891063608184784e+00 -5.0989571033068621e+00 -1.7829370673862641e+01 0 0 0
478 1 1 2.5415972567213302e-01 -7.1542789089943049e-01 -1.8407691820065800e+01 0 0 0
479 1 1 2.3095455732914569e-01 -1.3987415217549524e+00 -1.7676001369613779e+01 0 0 0
490 1 1 1.0494257953314836e+00 -9.9752377916577935e+00 -1.7417815793686678e+01 0 0 0
507 1 1 -2.5309358032289886e+00 -5.4362452428667112e+00 -1.6185419595232556e+01 0 0 0
489 1 1 1.3122448932916295e+00 -9.5321516185024429e+00 -1.6573749381953629e+01 0 0 0
506 1 1 -2.3989549597864133e+00 -4.9675783457015523e+00 -1.7033022463299130e+01 0 0 0
480 1 1 5.5635867047093690e-01 -2.2318513194615930e+00 -1.7301063931065208e+01 0 0 0
509 1 1 -2.6080994344458563e+00 -7.0091347899086349e+00 -1.5163147364813717e+01 0 0 0
508 1 1 -2.5953753119884779e+00 -6.4287376627793060e+00 -1.5958165093564652e+01 0 0 0
488 1 1 1.4674201207932860e+00 -8.9495176558512242e+00 -1.5769118819112421e+01 0 0 0
487 1 1 1.3748080954076356e+00 -8.1299762961569950e+00 -1.5197703586075228e+01 0 0 0
482 1 1 1.3350259734166585e+00 -3.7197028032428343e+00 -1.6517735660170075e+01 0 0 0
481 1 1 8.8884825136466306e-01 -3.0296537253898155e+00 -1.6994309381790028e+01 0 0 0
510 1 1 -2.5371737157239935e+00 -7.6551529003494627e+00 -1.4442175457486812e+01 0 0 0
486 1 1 1.6512342696931328e+00 -7.2053867831304457e+00 -1.4949861625936650e+01 0 0 0
485 1 1 1.5980709037225969e+00 -6.2631893628446971e+00 -1.5153514781560188e+01 0 0 0
484 1 1 1.6065308589863212e+00 -5.3412115792340531e+00 -1.5450409468709831e+01 0 0 0
483 1 1 1.5845459848164014e+00 -4.5891846823736593e+00 -1.6010142137026943e+01 0 0 0
511 1 1 -2.2441039824172782e+00 -7.7964008817481938e+00 -1.3463507024022467e+01 0 0 0
512 1 1 -2.3551163952792074e+00 -7.4885047317379234e+00 -1.2503585172362397e+01 0 0 0
513 1 1 -2.7108704066640743e+00 -7.5061790535447868e+00 -1.1538921002630056e+01 0 0 0
514 1 1 -2.9994009455555224e+00 -7.5050895999929779e+00 -1.0613981770431659e+01 0 0 0
515 1 1 -2.7726155893691424e+00 -7.2111294278573066e+00 -9.7297921311190123e+00 0 0 0
516 1 1 -2.4409929120865086e+00 -6.5692436675841721e+00 -9.0540616687410953e+00 0 0 0
517 1 1 -1.9166462733488883e+00 -6.1221773059522695e+00 -8.4207793004397473e+00 0 0 0
518 1 1 -1.4245108559183741e+00 -5.4869441856725700e+00 -7.9937734176067350e+00 0 0 0
519 1 1 -6.3885010134865738e-01 -5.3165313431580783e+00 -7.4134289291752262e+00 0 0 0
520 1 1 2.5371845233690193e-01 -5.4813005588273072e+00 -7.0276524662552857e+00 0 0 0
521 1 1 1.2358509140266551e+00 -5.5281764791506758e+00 -6.8818223783145385e+00 0 0 0
522 1 1 2.0389547551015128e+00 -5.0258435041577760e+00 -6.8729548650834822e+00 0 0 0
523 1 1 2.6245278826431306e+00 -4.2794020411803393e+00 -6.6505779423761826e+00 0 0 0
524 1 1 2.7450910665556312e+00 -3.4096086922985616e+00 -6.3123268103847519e+00 0 0 0
525 1 1 2.2919756579637367e+00 -2.5057914122376586e+00 -6.3616771481893188e+00 0 0 0
526 1 1 2.0977525173004001e+00 -1.5851393012330444e+00 -6.0446496732514783e+00 0 0 0
527 1 1 2.0811849199951959e+00 -9.1654807694277174e-01 -5.3671205375266311e+00 0 0 0
528 1 1 1.9257367609315561e+00 -5.5801430751284808e-01 -4.4841334088981162e+00 0 0 0
529 1 1 1.6818011146869967e+00 -1.4466740877917791e-01 -3.6825209471257052e+00 0 0 0
530 1 1 1.3433747657511883e+00 2.9114103190013718e-01 -2.8921683316350451e+00 0 0 0
531 1 1 7.8076896828067632e-01 6.3552735116759407e-01 -2.1853777732178146e+00 0 0 0
532 1 1 -3.1826053389350684e-02 5.6244561549612837e-01 -1.7372236989467236e+00 0 0 0
534 1 1 -9.9123822134195239e-01 1.1238431107717348e+00 -9.1921323018471585e-02 0 0 0
533 1 1 -6.3461496114513771e-01 6.6943751387630956e-01 -9.2551920976104241e-01 0 0 0
535 1 1 -1.0595630860904282e+00 1.5372341239637317e+00 7.4737505278406791e-01 0 0 0
539 1 1 -3.2881610323140831e+00 3.5487982935925722e+00 2.5481150687973910e+00 0 0 0
538 1 1 -2.4291026109143998e+00 3.1828020913754620e+00 2.4733880856988213e+00 0 0 0
537 1 1 -1.8451142348447356e+00 2.5171153481715218e+00 2.2293598283879659e+00 0 0 0
536 1 1 -1.4105813769738076e+00 1.9415811312731417e+00 1.5180220026630233e+00 0 0 0
540 1 1 -4.2292708969058292e+00 3.3007270995997859e+00 2.7513018486023477e+00 0 0 0
541 1 1 -5.0259043934611727e+00 3.3910552507302691e+00 3.2255029525379975e+00 0 0 0
542 1 1 -5.8237532121091728e+00 3.4620054148120163e+00 3.6786910421567072e+00 0 0 0
543 1 1 -6.6542070775831030e+00 3.1661705171781147e+00 4.0217282634797362e+00 0 0 0
544 1 1 -7.5786029749442640e+00 3.3810742756240000e+00 4.3608815884541068e+00 0 0 0
545 1 1 -8.3005425748438917e+00 2.8254623519672282e+00 4.9229711875387823e+00 0 0 0
546 1 1 -8.9800247624732314e+00 2.7705704207495634e+00 5.6028245643331180e+00 0 0 0
548 1 1 -1.0361434623944318e+01 3.7732619296834224e+00 6.3878127537884168e+00 0 0 0
547 1 1 -9.6980621930381936e+00 3.0716957187439768e+00 6.1628777659149296e+00 0 0 0
549 1 1 -1.0538266306701491e+01 4.1350577686372549e+00 7.3083624581405129e+00 0 0 0
551 1 1 -1.0413149735117761e+01 3.9452675698154818e+00 9.2113758566179591e+00 0 0 0
550 1 1 -1.0436302231448401e+01 4.1076697914457112e+00 8.2737875270033214e+00 0 0 0
552 1 1 -1.0588251113107539e+01 3.8154630086421277e+00 1.0253569230315984e+01 0 0 0
553 1 1 -1.0485690257823544e+01 3.7686774660428131e+00 1.1286221507149447e+01 0 0 0
554 1 1 -1.0314932842682811e+01 3.7601227380846698e+00 1.2268765289416560e+01 0 0 0
555 1 1 -1.0033181896842290e+01 4.0133412994604454e+00 1.3174452941330230e+01 0 0 0
556 1 1 -9.7835185167176846e+00 4.6388901014508450e+00 1.3920721831443236e+01 0 0 0
557 1 1 -9.4584336668959281e+00 5.3202099800837495e+00 1.4518184936974508e+01 0 0 0
558 1 1 -9.3171208019009946e+00 5.8115294458019475e+00 1.5278578573637329e+01 0 0 0
559 1 1 -8.7571929690816024e+00 6.1862468257164851e+00 1.5936956203950022e+01 0 0 0
561 1 1 -7.3307338671555922e+00 6.9910365412858377e+00 1.7144668117704249e+01 0 0 0
560 1 1 -8.0406856123963024e+00 6.6725195153074610e+00 1.6494414345651940e+01 0 0 0
562 1 1 -6.6480256960993920e+00 7.4595336310618103e+00 1.7734076101591150e+01 0 0 0
563 1 1 -5.9304363793681434e+00 7.8965800996548969e+00 1.8247774742958427e+01 0 0 0
564 1 1 -5.1169115745598548e+00 7.7661551500283972e+00 1.8850099182771157e+01 0 0 0
582 1 1 -3.9216933853324951e+00 -2.9693616642562706e+00 2.2291864801049769e+01 0 0 0
581 1 1 -3.1369322851180654e+00 -2.8321293933606109e+00 2.2848179189207066e+01 0 0 0
580 1 1 -2.4637665542315159e+00 -2.3980599207044064e+00 2.3370815853796930e+01 0 0 0
579 1 1 -1.7885457970464398e+00 -1.6857341234412773e+00 2.3484045404193985e+01 0 0 0
578 1 1 -1.5439757096310678e+00 -9.2524224445774461e-01 2.2947885962447103e+01 0 0 0
565 1 1 -4.3227049441311065e+00 7.2035823529574747e+00 1.8918227036539694e+01 0 0 0
566 1 1 -3.4710869485661067e+00 6.5960002212445792e+00 1.8945344099252104e+01 0 0 0
586 1 1 -6.9684818068320595e+00 -3.3759461118770426e+00 2.0134025013805186e+01 0 0 0
584 1 1 -5.3143087320796889e+00 -2.9357176891293544e+00 2.0961761396003308e+01 0 0 0
583 1 1 -4.6016417239868668e+00 -3.1741389457831355e+00 2.1675259019111714e+01 0 0 0
577 1 1 -1.0574429408687565e+00 -2.0897744472682633e-01 2.2635282050749819e+01 0 0 0
576 1 1 -6.7947275987135569e-01 4.9444575069233865e-01 2.2086961822556827e+01 0 0 0
567 1 1 -2.5842263419563274e+00 6.2523776538805320e+00 1.9232075262258615e+01 0 0 0
568 1 1 -1.9615072876858446e+00 5.6121492362369176e+00 1.9691876811284416e+01 0 0 0
569 1 1 -1.4209024344454253e+00 5.0014421516098491e+00 2.0154772883556756e+01 0 0 0
588 1 1 -8.3815516091386986e+00 -4.1711600416803227e+00 2.1076296910458986e+01 0 0 0
587 1 1 -7.8141469711126090e+00 -3.7220414704390405e+00 2.0409630685526221e+01 0 0 0
585 1 1 -6.0780548339236082e+00 -3.2219500242683115e+00 2.0380146228050712e+01 0 0 0
575 1 1 -5.4162125584219833e-01 1.3415605129441703e+00 2.1604953571885922e+01 0 0 0
574 1 1 1.9845910582139033e-02 1.9357372897352954e+00 2.1123683873767366e+01 0 0 0
571 1 1 2.7897922766266064e-01 4.4300305416515791e+00 2.0726055384752641e+01 0 0 0
570 1 1 -6.3700519046493509e-01 4.7450378644018976e+00 2.0628242883452728e+01 0 0 0
589 1 1 -8.6730657614567868e+00 -4.8549402350380442e+00 2.1727439766527361e+01 0 0 0
590 1 1 -9.0476281313463023e+00 -5.4459996634031302e+00 2.2350767013474062e+01 0 0 0
573 1 1 6.4124867135118269e-01 2.5959185633342199e+00 2.0684411555320430e+01 0 0 0
572 1 1 6.8332519624906563e-01 3.5595704977210825e+00 2.0568540464004478e+01 0 0 0
592 1 1 -9.3255284554541920e+00 -7.1073752514801862e+00 2.3388722188388705e+01 0 0 0
593 1 1 -9.4331226909424561e+00 -7.8739887589647735e+00 2.3914794104630680e+01 0 0 0
591 1 1 -9.3588934551217058e+00 -6.2331752306378414e+00 2.2880734939412797e+01 0 0 0
594 1 1 -9.5149811239902586e+00 -8.2924994873389579e+00 2.4793615779184513e+01 0 0 0
595 1 1 -9.6530312333116761e+00 -8.2363836843849576e+00 2.5752880262107542e+01 0 0 0
596 1 1 -9.9635955946218679e+00 -7.8425721406762996e+00 2.6621569302143666e+01 0 0 0
597 1 1 -1.0268111012973623e+01 -7.1834595060618254e+00 2.7230578394641597e+01 0 0 0
598 1 1 -9.9744631837537181e+00 -6.8309383166028788e+00 2.8181854357700388e+01 0 0 0
599 1 1 -9.5012640320081552e+00 -6.9441943524933221e+00 2.8973442295415456e+01 0 0 0
600 1 1 -8.8265842784396646e+00 -7.0323988471769052e+00 2.9729193032847473e+01 0 0 0
601 1 1 -8.1180106652354347e+00 -6.9781001245018324e+00 3.0415563268441456e+01 0 0 0
602 1 1 -7.4982492227455779e+00 -6.7424211598591040e+00 3.1095386284836170e+01 0 0 0
603 1 1 -6.8535098759678439e+00 -6.8123675237066523e+00 3.1804819103769862e+01 0 0 0
604 1 1 -6.0525209919098497e+00 -7.2591298130974664e+00 3.2071461028314893e+01 0 0 0
605 1 1 -5.4261858375254244e+00 -7.2054184317076588e+00 3.2756699428513549e+01 0 0 0
606 1 1 -4.7605386155654035e+00 -6.8537699472188960e+00 3.3535075398886811e+01 0 0 0
607 1 1 -4.7488007252060669e+00 -6.4618917214550020e+00 3.4443886405585602e+01 0 0 0
608 1 1 -4.5535490040321038e+00 -6.3302523953213976e+00 3.5400131599460991e+01 0 0 0
609 1 1 -3.9201733691818985e+00 -6.3796553501719462e+00 3.6132626040845345e+01 0 0 0
610 1 1 -3.4014653273922977e+00 -6.3153103543151987e+00 3.6958437117209016e+01 0 0 0
635 1 1 1.3531827406949340e+01 2.3764179337695017e+00 3.7450400413655714e+01 0 0 0
611 1 1 -2.5294770937146649e+00 -6.1229613964019158e+00 3.7448889219021275e+01 0 0 0
612 1 1 -1.7204584786947785e+00 -5.6963506104699464e+00 3.7698919675132551e+01 0 0 0
632 1 1 1.0986878008784409e+01 1.0662098288460171e+00 3.7307191849039555e+01 0 0 0
633 1 1 1.1791863308237012e+01 1.4437331487751004e+00 3.7309781617254913e+01 0 0 0
634 1 1 1.2697861686738690e+01 1.8894404145040757e+00 3.7449355069682561e+01 0 0 0
636 1 1 1.4055285168454470e+01 3.2186831282719073e+00 3.7557344200589533e+01 0 0 0
637 1 1 1.4828453816283520e+01 3.7618447685322987e+00 3.7778683875137531e+01 0 0 0
638 1 1 1.5501516083944400e+01 4.3557310667120364e+00 3.8139805865950478e+01 0 0 0
613 1 1 -1.1510787559376909e+00 -4.9922015121188776e+00 3.8043756211682144e+01 0 0 0
630 1 1 9.5353772531675300e+00 -7.9481788671503600e-02 3.7433312377540673e+01 0 0 0
631 1 1 1.0275815122238640e+01 4.2785328428129737e-01 3.7128872126268931e+01 0 0 0
639 1 1 1.5770299751173100e+01 4.8390388671112827e+00 3.8894534965055954e+01 0 0 0
640 1 1 1.5707038049367164e+01 4.8479496615879212e+00 3.9859079432446421e+01 0 0 0
641 1 1 1.4914519871438598e+01 4.6935832561871722e+00 4.0440274239018933e+01 0 0 0
664 1 1 -2.3280681067693467e+00 5.6550251987269187e+00 3.9764290686832375e+01 0 0 0
663 1 1 -1.6877788141645420e+00 5.8457997384315714e+00 3.9035233747006245e+01 0 0 0
662 1 1 -8.7768932740345629e-01 5.9878227655097733e+00 3.8534853972536069e+01 0 0 0
661 1 1 6.8039424575422086e-02 6.1858847259929588e+00 3.8395933977653428e+01 0 0 0
655 1 1 5.2353089061646374e+00 6.9927163453068033e+00 3.9970759070802508e+01 0 0 0
660 1 1 9.0325251589065714e-01 6.5643065412374710e+00 3.8091575005229480e+01 0 0 0
659 1 1 1.8904163847350226e+00 6.7942735860805188e+00 3.8233109509421347e+01 0 0 0
658 1 1 2.7862789925933820e+00 6.8122017741684635e+00 3.8622942309414057e+01 0 0 0
657 1 1 3.6917420262299574e+00 6.9325328710323415e+00 3.9031965674397249e+01 0 0 0
656 1 1 4.3091112654873100e+00 7.2564111029127503e+00 3.9626574033282751e+01 0 0 0
614 1 1 -9.5724131408774848e-01 -4.0338374286245804e+00 3.8029661317468765e+01 0 0 0
627 1 1 7.1808444167747307e+00 -5.9344343216634876e-01 3.8966193157753565e+01 0 0 0
628 1 1 7.8920074239320748e+00 -3.8364552266987895e-01 3.8399476045089251e+01 0 0 0
629 1 1 8.7339780604125909e+00 -2.4672842329672484e-01 3.7880467387839218e+01 0 0 0
642 1 1 1.4237057109917528e+01 5.0564411884919052e+00 4.0999241625452008e+01 0 0 0
654 1 1 5.9420869292526914e+00 6.7397297765982840e+00 4.0638213036866510e+01 0 0 0
653 1 1 6.4087142910224619e+00 6.8861658564624957e+00 4.1524584646496969e+01 0 0 0
652 1 1 7.0777636995567850e+00 6.9557658005865175e+00 4.2285111351552040e+01 0 0 0
665 1 1 -3.0344263537610776e+00 5.8303557038636358e+00 4.0591190682275744e+01 0 0 0
666 1 1 -3.2594561191106584e+00 5.5890113752675212e+00 4.1565216360627083e+01 0 0 0
615 1 1 -6.2483759414975881e-01 -3.1806305498661969e+00 3.8247927946432178e+01 0 0 0
616 1 1 -6.8519997814316025e-01 -2.2283205346124038e+00 3.8478764185319527e+01 0 0 0
625 1 1 6.2654276611885962e+00 -9.5339108102727965e-01 4.0535113528298531e+01 0 0 0
626 1 1 6.5613156402251995e+00 -5.9858322906067563e-01 3.9690262463052726e+01 0 0 0
643 1 1 1.3507846896238728e+01 5.4811267908421053e+00 4.1443170777338977e+01 0 0 0
651 1 1 7.9647068306658504e+00 6.9263243340475373e+00 4.2643227169172832e+01 0 0 0
650 1 1 8.4570907284813970e+00 7.0423330792710814e+00 4.3438556873127574e+01 0 0 0
649 1 1 9.2489261413998314e+00 7.5671609804010815e+00 4.3730686468280098e+01 0 0 0
645 1 1 1.2234136521681382e+01 6.6199139381938572e+00 4.2190566209897000e+01 0 0 0
644 1 1 1.2809021886538217e+01 6.0912273841815070e+00 4.1622808759182597e+01 0 0 0
667 1 1 -3.2809984173129330e+00 5.4629768636611837e+00 4.2507549433021275e+01 0 0 0
617 1 1 2.0370678778693623e-02 -1.6631706726831672e+00 3.8907659922980464e+01 0 0 0
618 1 1 8.2034978344306109e-01 -1.4010807156861123e+00 3.9397650783442792e+01 0 0 0
619 1 1 1.6952715010939177e+00 -1.0387988556867371e+00 3.9723502328134742e+01 0 0 0
620 1 1 2.5636529786498672e+00 -1.2077996184084301e+00 4.0178539056092760e+01 0 0 0
621 1 1 3.2648432342909928e+00 -1.6529202901547870e+00 4.0651275480040418e+01 0 0 0
622 1 1 4.1405663156893340e+00 -1.9876009934817080e+00 4.1065179631808711e+01 0 0 0
623 1 1 5.0911360714462797e+00 -2.0838237855957082e+00 4.1333453570251883e+01 0 0 0
624 1 1 5.8756540555317356e+00 -1.6397481259217792e+00 4.1090966529380061e+01 0 0 0
668 1 1 -2.9181458475934989e+00 5.4135466778443577e+00 4.3422663811986233e+01 0 0 0
669 1 1 -2.9273885176285597e+00 5.4130971463175870e+00 4.4378511280686510e+01 0 0 0
648 1 1 1.0230522133036235e+01 7.6117264141083947e+00 4.3808777393683627e+01 0 0 0
647 1 1 1.1113151018035648e+01 7.1238773054314777e+00 4.3721205017591039e+01 0 0 0
646 1 1 1.1552519162357655e+01 6.9844200412205497e+00 4.2821344023811392e+01 0 0 0
670 1 1 -2.7671584212135127e+00 6.0535017962546762e+00 4.5070165368006975e+01 0 0 0
671 1 1 -2.6315505354303577e+00 6.3131914912700928e+00 4.5954791665252145e+01 0 0 0
672 1 1 -2.2823717571986659e+00 6.4975567579978240e+00 4.6819135236681980e+01 0 0 0
673 1 1 -2.4100559177758276e+00 6.7631038568153636e+00 4.7762668549521536e+01 0 0 0
674 1 1 -2.7339986580531641e+00 6.5447161694147136e+00 4.8642647277129363e+01 0 0 0
675 1 1 -2.8645594302804112e+00 6.5852417552071749e+00 4.9565564303715746e+01 0 0 0
676 1 1 -2.8986387972116132e+00 6.4564959577785537e+00 5.0554244797908765e+01 0 0 0
677 1 1 -2.8001040402367359e+00 6.0242245777786341e+00 5.1418642004703059e+01 0 0 0
679 1 1 -1.7226793677813121e+00 5.0212181500204984e+00 5.2649340989562106e+01 0 0 0
678 1 1 -2.4922818116846370e+00 5.4901453346943425e+00 5.2247746207885669e+01 0 0 0
680 1 1 -9.0356133972248032e-01 4.7786030719857386e+00 5.2971963537619423e+01 0 0 0
681 1 1 -5.2090709648638586e-02 4.4672197048521332e+00 5.3232486936047444e+01 0 0 0
682 1 1 7.4853642210647220e-01 3.8314921254880794e+00 5.3273106987102835e+01 0 0 0
683 1 1 1.6469239759494754e+00 3.3480077531298469e+00 5.3037180385586829e+01 0 0 0
684 1 1 2.6343261588378031e+00 3.1654875459435239e+00 5.3225333522413898e+01 0 0 0
685 1 1 3.4714543538928235e+00 3.1170477160534711e+00 5.3593134553693922e+01 0 0 0
686 1 1 4.4106125555071838e+00 3.0522503399970300e+00 5.3691778630980714e+01 0 0 0
687 1 1 5.3881477640514337e+00 3.0624142047754375e+00 5.4066914314105318e+01 0 0 0
688 1 1 6.3948648922348035e+00 3.0146371909135126e+00 5.4068331233061969e+01 0 0 0
689 1 1 7.0879241362410887e+00 2.9677297077917784e+00 5.4794746227843447e+01 0 0 0
690 1 1 7.7034821564214049e+00 2.6424351334965683e+00 5.5454406581845923e+01 0 0 0
726 1 1 6.4853402710144197e+00 1.0635413314121688e+01 5.6083184264364284e+01 0 0 0
727 1 1 6.9227815486606668e+00 9.9192030614852289e+00 5.5678091326115108e+01 0 0 0
725 1 1 6.0931220579677454e+00 1.1254097454576145e+01 5.6721419894982141e+01 0 0 0
691 1 1 8.3677002095939788e+00 2.1924152843574363e+00 5.6009789697950900e+01 0 0 0
732 1 1 8.4208838428925628e+00 5.9556333190878927e+00 5.6828854138138865e+01 0 0 0
731 1 1 7.8548899214412069e+00 6.5546561191166255e+00 5.6409246669999177e+01 0 0 0
729 1 1 7.2691342320868939e+00 8.0473929721963184e+00 5.5302178531905177e+01 0 0 0
730 1 1 7.3935889505399821e+00 7.2961654128833260e+00 5.5899458206276286e+01 0 0 0
728 1 1 7.0914324713801342e+00 8.9925057462414468e+00 5.5581731247849376e+01 0 0 0
724 1 1 5.5439520265550364e+00 1.1709235527394158e+01 5.7340455683165530e+01 0 0 0
723 1 1 4.9704909028626254e+00 1.2226430742347304e+01 5.7926307693017293e+01 0 0 0
692 1 1 8.3917057996427911e+00 1.6208599193696653e+00 5.6810149914849873e+01 0 0 0
693 1 1 7.7702815893661672e+00 1.7507764261834058e+00 5.7603781240314490e+01 0 0 0
735 1 1 9.2104564753221272e+00 3.7092012067100177e+00 5.8484176183846010e+01 0 0 0
734 1 1 9.0464239136114770e+00 4.5197041538715892e+00 5.8055629182390760e+01 0 0 0
733 1 1 8.8223777766126705e+00 5.3077407274046315e+00 5.7452806611910262e+01 0 0 0
722 1 1 4.1034905639208326e+00 1.2610253603516933e+01 5.8296788402213735e+01 0 0 0
695 1 1 6.5340316174375719e+00 1.3422106318230973e+00 5.9084399660314986e+01 0 0 0
694 1 1 6.9369397124515872e+00 1.5720364537256768e+00 5.8219186076145952e+01 0 0 0
737 1 1 8.8370457769653701e+00 2.4905821249293529e+00 6.0047513996960362e+01 0 0 0
736 1 1 9.0400842203912006e+00 3.0620588452163480e+00 5.9254731599805460e+01 0 0 0
720 1 1 2.6006403685724795e+00 1.2475051174034400e+01 5.9492550754738311e+01 0 0 0
721 1 1 3.3328422316205977e+00 1.2657477336211848e+01 5.8894725525925764e+01 0 0 0
697 1 1 6.1090025198431865e+00 4.1555643916478341e-02 6.0266870298320249e+01 0 0 0
696 1 1 5.9819618381816815e+00 6.2881485379630853e-01 5.9461631913002556e+01 0 0 0
738 1 1 8.3300562143231414e+00 2.3875466000005825e+00 6.0852812123895319e+01 0 0 0
719 1 1 1.7907899661752833e+00 1.2252791633169394e+01 6.0132480305242055e+01 0 0 0
699 1 1 5.5133909698975661e+00 -1.1253751161136818e+00 6.1612333683722305e+01 0 0 0
700 1 1 4.8088282077095039e+00 -9.7158413845107483e-01 6.2275163501956477e+01 0 0 0
698 1 1 5.9463779145077940e+00 -4.5875056837275668e-01 6.1077024134616316e+01 0 0 0
740 1 1 7.9882244832333393e+00 3.0790644042303859e+00 6.2496693413779987e+01 0 0 0
739 1 1 7.9848640478711568e+00 2.5277386663261194e+00 6.1706977858259052e+01 0 0 0
717 1 1 1.0518835362068688e+00 1.1616368925368439e+01 6.1603531486440595e+01 0 0 0
718 1 1 1.1283643846638516e+00 1.1948974005656250e+01 6.0708483914021592e+01 0 0 0
701 1 1 4.2198623038625325e+00 -3.8484980265788798e-01 6.2726350634124884e+01 0 0 0
741 1 1 7.9835589292805542e+00 3.3308570690441166e+00 6.3477853141904795e+01 0 0 0
715 1 1 9.4934696743241476e-01 9.9478545839264072e+00 6.2565878222472961e+01 0 0 0
716 1 1 9.2382086242014105e-01 1.0884657231720396e+01 6.2176531837824143e+01 0 0 0
702 1 1 3.5746536847272870e+00 -1.1448946091475085e-01 6.3358679720138340e+01 0 0 0
703 1 1 2.8842053893609707e+00 2.6743995397149595e-01 6.3897248882991555e+01 0 0 0
742 1 1 8.0915100454047195e+00 4.0419896622786169e+00 6.4103616479335727e+01 0 0 0
743 1 1 8.3605314151451360e+00 4.7362070797293461e+00 6.4716077511751806e+01 0 0 0
713 1 1 7.2792197216578958e-01 8.3142217269028222e+00 6.3657589407594429e+01 0 0 0
714 1 1 9.6460430145492226e-01 9.1588574552944291e+00 6.3143052963070971e+01 0 0 0
704 1 1 2.3239666252424986e+00 8.7249053825089895e-01 6.4362359288357311e+01 0 0 0
706 1 1 1.3790228488635687e+00 2.4259425856507018e+00 6.4472100080500411e+01 0 0 0
705 1 1 1.6417437654287292e+00 1.5169767655949931e+00 6.4574609531268578e+01 0 0 0
707 1 1 1.6872233141904527e+00 3.0970407229534507e+00 6.3842262397244355e+01 0 0 0
708 1 1 1.8950247456278173e+00 3.8628644364253351e+00 6.3317629219577995e+01 0 0 0
744 1 1 8.3868217910232321e+00 5.5035260412222557e+00 6.5298239837865609e+01 0 0 0
745 1 1 8.2665781496292379e+00 6.4401209979912206e+00 6.5310269187558248e+01 0 0 0
709 1 1 1.9314525932027702e+00 4.7827744407708543e+00 6.3050507755447164e+01 0 0 0
710 1 1 1.5487951870141867e+00 5.6714682974363742e+00 6.2987565517961677e+01 0 0 0
711 1 1 1.1336149035772241e+00 6.4480955086838732e+00 6.3435344942858272e+01 0 0 0
712 1 1 7.1573539009672527e-01 7.3125205334050598e+00 6.3657768221128464e+01 0 0 0
746 1 1 7.7864200335012406e+00 7.0886002892536615e+00 6.5842307574000941e+01 0 0 0
747 1 1 7.5092662653284110e+00 7.2201871993816518e+00 6.6766778919233090e+01 0 0 0
748 1 1 7.1952660812982110e+00 7.7985922811785899e+00 6.7585722061877959e+01 0 0 0
749 1 1 7.3405742323253804e+00 8.0757193016387472e+00 6.8625761838177283e+01 0 0 0
750 1 1 7.1012541129985687e+00 8.1388562581858928e+00 6.9586381629874722e+01 0 0 0
751 1 1 7.2247257368497309e+00 8.3197070023381468e+00 7.0537319299754159e+01 0 0 0
752 1 1 7.3948802854341755e+00 8.1299459282443980e+00 7.1436403626169295e+01 0 0 0
753 1 1 7.3429884499092228e+00 7.7975688632823443e+00 7.2401787370153372e+01 0 0 0
804 1 1 1.8851645485772668e+01 1.5500276248772211e+01 7.2203514893817058e+01 0 0 0
805 1 1 1.9235150423352586e+01 1.6366797924026546e+01 7.1881704328916342e+01 0 0 0
806 1 1 1.9713897371111049e+01 1.7249160775720256e+01 7.1657157046239334e+01 0 0 0
807 1 1 1.9486120656925202e+01 1.8130243987040462e+01 7.1383299183589472e+01 0 0 0
808 1 1 1.9398209410418890e+01 1.9108237561276749e+01 7.1085430597870086e+01 0 0 0
809 1 1 1.9368321745148734e+01 2.0011818503677883e+01 7.0786995985860543e+01 0 0 0
815 1 1 1.4397437468735813e+01 2.1564983465467087e+01 7.0232123339293864e+01 0 0 0
814 1 1 1.5380166882916882e+01 2.1311099210972703e+01 7.0458875616783530e+01 0 0 0
812 1 1 1.7338009739439432e+01 2.1415622054829658e+01 7.0455370334185048e+01 0 0 0
813 1 1 1.6364958847050591e+01 2.1281692099743132e+01 7.0524017851514941e+01 0 0 0
811 1 1 1.8316085229819510e+01 2.1451582147651632e+01 7.0313821793790424e+01 0 0 0
810 1 1 1.9037626962972915e+01 2.0883920251469771e+01 7.0563482911393848e+01 0 0 0
816 1 1 1.3483470930320905e+01 2.1391490783168624e+01 7.0408625423849955e+01 0 0 0
755 1 1 7.0444217567560345e+00 7.1123361322332608e+00 7.4240200026934531e+01 0 0 0
754 1 1 7.1584438107092856e+00 7.3232214137246112e+00 7.3250183640157346e+01 0 0 0
802 1 1 1.8633312166397534e+01 1.3658579520250658e+01 7.2363919568776765e+01 0 0 0
803 1 1 1.8658778663108830e+01 1.4597863514910301e+01 7.2483167754028145e+01 0 0 0
818 1 1 1.2074708800142865e+01 2.1282343356560091e+01 7.1663046702198400e+01 0 0 0
817 1 1 1.2581361485143296e+01 2.1153099776646972e+01 7.0802782298451277e+01 0 0 0
756 1 1 6.5866622950017728e+00 6.7602607236264891e+00 7.4982063871694962e+01 0 0 0
801 1 1 1.8131728016659501e+01 1.2804053462934279e+01 7.2505372673426777e+01 0 0 0
833 1 1 3.9732320414115896e+00 1.8977499605314279e+01 7.4242798852648136e+01 0 0 0
831 1 1 5.9548603382593805e+00 1.9178071036537482e+01 7.4271320387807208e+01 0 0 0
832 1 1 4.9756067114332305e+00 1.9033166094509088e+01 7.4052062899748137e+01 0 0 0
830 1 1 6.7855983552521248e+00 1.9116831896684065e+01 7.4871670896526751e+01 0 0 0
829 1 1 7.4127027675833048e+00 1.9193807116890103e+01 7.5610830364590228e+01 0 0 0
820 1 1 1.1803565760855662e+01 2.1563789138951250e+01 7.3545681064598654e+01 0 0 0
819 1 1 1.1993485073431776e+01 2.1393046826551974e+01 7.2601883380769621e+01 0 0 0
757 1 1 5.8768594275485047e+00 6.2890909447342107e+00 7.5442798089819959e+01 0 0 0
758 1 1 5.4312554076111281e+00 5.9654006202560472e+00 7.6192055342115964e+01 0 0 0
799 1 1 1.6936777792443145e+01 1.1704706031726010e+01 7.3491556259166728e+01 0 0 0
800 1 1 1.7708691482527946e+01 1.2183350545485538e+01 7.3091934071663971e+01 0 0 0
836 1 1 1.3721876843954484e+00 1.8622215296674977e+01 7.5337177060737133e+01 0 0 0
837 1 1 4.8828495746092004e-01 1.8411231030504759e+01 7.5647889043394756e+01 0 0 0
835 1 1 2.2049199941331623e+00 1.8827336666144554e+01 7.4909885368994068e+01 0 0 0
834 1 1 3.0932222771989695e+00 1.9012599674675212e+01 7.4586239366423058e+01 0 0 0
828 1 1 8.2489498963798003e+00 1.9144624428313470e+01 7.6092910440468657e+01 0 0 0
827 1 1 9.2097290020394844e+00 1.8902374227218637e+01 7.6313736409404342e+01 0 0 0
822 1 1 1.2138628892157998e+01 2.1340170361164478e+01 7.5531371128640203e+01 0 0 0
821 1 1 1.2010992057321504e+01 2.1479251633572616e+01 7.4557784849674931e+01 0 0 0
760 1 1 4.1789270593471368e+00 5.2678732420420955e+00 7.7332634657691926e+01 0 0 0
759 1 1 5.0038573730131697e+00 5.5241815207342730e+00 7.6981848145431101e+01 0 0 0
796 1 1 1.4546997194275320e+01 1.0575639913144606e+01 7.4556822006584838e+01 0 0 0
797 1 1 1.5296587602218816e+01 1.0856488795822363e+01 7.4013330188834885e+01 0 0 0
798 1 1 1.6112674822285758e+01 1.1315016785613498e+01 7.3750962155782474e+01 0 0 0
838 1 1 -2.6568696283203264e-01 1.8688268967385930e+01 7.6067211742230683e+01 0 0 0
839 1 1 -7.6939401078071745e-01 1.8718434995682497e+01 7.6901967727700722e+01 0 0 0
826 1 1 1.0078075949471980e+01 1.8919325351945947e+01 7.6606589286686145e+01 0 0 0
825 1 1 1.0859665338318381e+01 1.9358725419282074e+01 7.6812520020882673e+01 0 0 0
824 1 1 1.1584996292724909e+01 2.0007474513115138e+01 7.6696598333213174e+01 0 0 0
823 1 1 1.2163650861653940e+01 2.0641563916706847e+01 7.6237988695894771e+01 0 0 0
762 1 1 3.0738446104792545e+00 4.0348072277795541e+00 7.8383199241890892e+01 0 0 0
761 1 1 3.5566314371721042e+00 4.7902841987622020e+00 7.7931163569918439e+01 0 0 0
791 1 1 1.1809873256887061e+01 1.2365370477310767e+01 7.7656989508599381e+01 0 0 0
793 1 1 1.2814572934196608e+01 1.1915921135833889e+01 7.6057333659580095e+01 0 0 0
792 1 1 1.2422718814429661e+01 1.2025264130524228e+01 7.6894271426565837e+01 0 0 0
794 1 1 1.3043087281141570e+01 1.1126868747325977e+01 7.5583329933361938e+01 0 0 0
795 1 1 1.3722183635190818e+01 1.0642259648741497e+01 7.5149225350834016e+01 0 0 0
840 1 1 -1.1475701880274878e+00 1.8715641260230843e+01 7.7734382413852785e+01 0 0 0
764 1 1 1.8401038894172961e+00 3.3007587664955409e+00 7.9474764545853148e+01 0 0 0
763 1 1 2.6373647410443239e+00 3.5010299197569164e+00 7.8992980729019195e+01 0 0 0
787 1 1 8.6737915316773933e+00 1.2779605445596703e+01 7.9823819663140839e+01 0 0 0
790 1 1 1.0862985111375936e+01 1.2274766529333109e+01 7.8042356328621352e+01 0 0 0
788 1 1 9.6856923036142195e+00 1.2592764663016805e+01 7.9647795843821697e+01 0 0 0
789 1 1 1.0334205663782724e+01 1.2508828283622812e+01 7.8896289108575274e+01 0 0 0
841 1 1 -1.2408572925259658e+00 1.8266032817102882e+01 7.8574358944956018e+01 0 0 0
766 1 1 9.3855230456284522e-03 3.3269959702915397e+00 7.9979461735865343e+01 0 0 0
765 1 1 9.1205176195212578e-01 3.0685356551419356e+00 7.9656888732609204e+01 0 0 0
785 1 1 6.8235898167604354e+00 1.2663335056679250e+01 7.9898312599255121e+01 0 0 0
786 1 1 7.7052391419605115e+00 1.3064563211822332e+01 7.9994111081128082e+01 0 0 0
842 1 1 -9.7885909289433481e-01 1.7883418870052992e+01 7.9500603228339443e+01 0 0 0
843 1 1 -1.0284483788236281e+00 1.7742238989970719e+01 8.0448826608856336e+01 0 0 0
767 1 1 -8.1049340242933143e-01 3.7302705788277772e+00 8.0371328925436103e+01 0 0 0
768 1 1 -1.5372348939582658e+00 4.3312853319925440e+00 8.0661004573473065e+01 0 0 0
769 1 1 -1.5559265376455635e+00 5.1603729101366760e+00 8.1144034994040467e+01 0 0 0
770 1 1 -1.1543005154632184e+00 5.9794148876607762e+00 8.1519714517807401e+01 0 0 0
771 1 1 -7.2645432071786231e-01 6.5535762088631584e+00 8.2201659729866819e+01 0 0 0
772 1 1 -6.2068754884802813e-01 7.3533702924615207e+00 8.2743195672139706e+01 0 0 0
773 1 1 -4.6790708850808310e-01 8.2683937461358479e+00 8.2896126690161424e+01 0 0 0
774 1 1 -3.9916775177753888e-01 9.2319243423860726e+00 8.2751248513859778e+01 0 0 0
784 1 1 5.8979391666815912e+00 1.2493973738183811e+01 8.0093159994753961e+01 0 0 0
844 1 1 -5.0344181407511746e-01 1.7809331107450994e+01 8.1300772393342356e+01 0 0 0
775 1 1 -6.4076927463630162e-01 9.8923798091202926e+00 8.2089669740085327e+01 0 0 0
783 1 1 5.0711962311086607e+00 1.2051209182901506e+01 7.9960026836097711e+01 0 0 0
776 1 1 -8.6275477780796950e-01 1.0575890178782258e+01 8.1460499134987018e+01 0 0 0
777 1 1 -4.2981083862575892e-01 1.1214433218440284e+01 8.0838352026009602e+01 0 0 0
778 1 1 5.1187381561278023e-01 1.1516748688431946e+01 8.0571487165009117e+01 0 0 0
779 1 1 1.4821567176014785e+00 1.1588472320803529e+01 8.0394661273645909e+01 0 0 0
781 1 1 3.2168184712812011e+00 1.1457839539237817e+01 8.0008281959065840e+01 0 0 0
780 1 1 2.3006367234319485e+00 1.1374256113212159e+01 7.9938379994609249e+01 0 0 0
782 1 1 4.2351223776408258e+00 1.1521594367833229e+01 8.0144165821404016e+01 0 0 0
845 1 1 2.2007249577560320e-01 1.7848062299742725e+01 8.1959524716718107e+01 0 0 0
854 1 1 6.6102157221464672e+00 1.5635005147859818e+01 8.3893178138619945e+01 0 0 0
848 1 1 1.7727594940956890e+00 1.7672762382691879e+01 8.4276900011690202e+01 0 0 0
849 1 1 2.3787076799205074e+00 1.6989321814036714e+01 8.4506799834130533e+01 0 0 0
853 1 1 5.6517494956553440e+00 1.5359876225921701e+01 8.3741004115106875e+01 0 0 0
855 1 1 7.3524033496212757e+00 1.6155199286127274e+01 8.4338579949232923e+01 0 0 0
856 1 1 7.9134958282138408e+00 1.6902097345629791e+01 8.4595104983465674e+01 0 0 0
857 1 1 8.4238751542207879e+00 1.7712302551790049e+01 8.4625091691241110e+01 0 0 0
846 1 1 6.3492915253979121e-01 1.7776483403823320e+01 8.2868073721529498e+01 0 0 0
847 1 1 9.7277876258750495e-01 1.7851150879528390e+01 8.3752720761743149e+01 0 0 0
881 1 1 3.3683563013838786e+00 1.2347852077694670e+01 8.6395460855580239e+01 0 0 0
880 1 1 3.7280181996931683e+00 1.3180402520149018e+01 8.6240353718620781e+01 0 0 0
850 1 1 3.1482644478828794e+00 1.6373090485578938e+01 8.4304060435255408e+01 0 0 0
851 1 1 3.7870710973939579e+00 1.5737172678696275e+01 8.3924145677265230e+01 0 0 0
852 1 1 4.6612779388750454e+00 1.5446882942134618e+01 8.3735338816353590e+01 0 0 0
858 1 1 8.6603243161051857e+00 1.8620593365865631e+01 8.4858883450417125e+01 0 0 0
859 1 1 9.1206356151171573e+00 1.9525351794889772e+01 8.5111487887905042e+01 0 0 0
860 1 1 9.9441523941934822e+00 2.0041269058601426e+01 8.5021277425344479e+01 0 0 0
861 1 1 1.0311949402994737e+01 2.0909022303904841e+01 8.5176881112555364e+01 0 0 0
883 1 1 2.8009916316996670e+00 1.1520485794029140e+01 8.7992858025928228e+01 0 0 0
882 1 1 3.2395771605663968e+00 1.1942537427960428e+01 8.7252066099882015e+01 0 0 0
879 1 1 4.3066478781363218e+00 1.3980474897390552e+01 8.6243569511054389e+01 0 0 0
878 1 1 4.7171643139053216e+00 1.4873444412914697e+01 8.6064663087351306e+01 0 0 0
877 1 1 4.7996271491682236e+00 1.5754442167561720e+01 8.5628816466548983e+01 0 0 0
876 1 1 5.0542866001329498e+00 1.6549868968539300e+01 8.5042656102560258e+01 0 0 0
863 1 1 1.0965154648501244e+01 2.2593202072342965e+01 8.5468105783160667e+01 0 0 0
862 1 1 1.0925668296751601e+01 2.1605179045627811e+01 8.5217986911597151e+01 0 0 0
865 1 1 9.3619965946769010e+00 2.3553477435488166e+01 8.5651104449286223e+01 0 0 0
864 1 1 1.0266100936251558e+01 2.3222757641257370e+01 8.5619777079235504e+01 0 0 0
866 1 1 8.4811721011400643e+00 2.3465871384668173e+01 8.5905347335301585e+01 0 0 0
884 1 1 2.5009781634362689e+00 1.1489831397654102e+01 8.8895883746451958e+01 0 0 0
875 1 1 5.4437862567353621e+00 1.7238091783344473e+01 8.4483246304231841e+01 0 0 0
874 1 1 5.3901253086473506e+00 1.8167584461549279e+01 8.4556901008582642e+01 0 0 0
873 1 1 5.1833499677227168e+00 1.8995585701876230e+01 8.5092435279070600e+01 0 0 0
868 1 1 6.7218511618964216e+00 2.3110508565517897e+01 8.6315221045484691e+01 0 0 0
867 1 1 7.5550241368526869e+00 2.3482464278111799e+01 8.6149789846035560e+01 0 0 0
885 1 1 2.1755634353502238e+00 1.1291558177266175e+01 8.9830055661893553e+01 0 0 0
886 1 1 1.8184691131338615e+00 1.0669293348025075e+01 9.0542929057750925e+01 0 0 0
872 1 1 4.9634724825878491e+00 1.9848297891618586e+01 8.5602818465018274e+01 0 0 0
871 1 1 5.2503444161098152e+00 2.0651383177063465e+01 8.6140197068969329e+01 0 0 0
870 1 1 5.7220488014407351e+00 2.1484537486682239e+01 8.6195146188791114e+01 0 0 0
869 1 1 6.2036898877139972e+00 2.2297988633678557e+01 8.6320490442222564e+01 0 0 0
919 1 1 9.3948047278465143e+00 2.4077613847862338e+01 8.9701524620628589e+01 0 0 0
887 1 1 1.2775974350204473e+00 1.0390887014637851e+01 9.1328363018434331e+01 0 0 0
922 1 1 7.0272016187754094e+00 2.3025968166115423e+01 8.9276653037555946e+01 0 0 0
921 1 1 7.7742514190992500e+00 2.3488688924805349e+01 8.8874188678798006e+01 0 0 0
920 1 1 8.6536812327802473e+00 2.3649105782538324e+01 8.9188049020414724e+01 0 0 0
918 1 1 9.5156420496733709e+00 2.4413652047028869e+01 9.0602021071439708e+01 0 0 0
917 1 1 9.3625773564796155e+00 2.4769501387141943e+01 9.1467282724223224e+01 0 0 0
888 1 1 6.2223006789303659e-01 9.8669103498058437e+00 9.1877807056479938e+01 0 0 0
925 1 1 5.0066788940433735e+00 2.1715578562774724e+01 9.0407923097141818e+01 0 0 0
924 1 1 5.3631349447515051e+00 2.2066008270358672e+01 8.9559001991712151e+01 0 0 0
923 1 1 6.1713321277296167e+00 2.2513316303902450e+01 8.9406574897246344e+01 0 0 0
915 1 1 7.9651160644412986e+00 2.5307924977309685e+01 9.2687919867490933e+01 0 0 0
916 1 1 8.6253468171615708e+00 2.4886834858305686e+01 9.2088933962306385e+01 0 0 0
889 1 1 -1.5872640771175084e-01 9.7803452301350262e+00 9.2528060323014842e+01 0 0 0
890 1 1 -7.5573912633232876e-01 1.0371137872075536e+01 9.2979035752191365e+01 0 0 0
926 1 1 4.5686449357191004e+00 2.1563063150165647e+01 9.1273318549922578e+01 0 0 0
913 1 1 6.6848147836828273e+00 2.5266810040961897e+01 9.3994814391480674e+01 0 0 0
914 1 1 7.1811855773236344e+00 2.5394843582630291e+01 9.3165537589349498e+01 0 0 0
891 1 1 -1.3466891703539574e+00 1.1052167736317212e+01 9.3299958843143855e+01 0 0 0
892 1 1 -1.8883040366469570e+00 1.1831476131344347e+01 9.3418444306293992e+01 0 0 0
927 1 1 4.0893918003003753e+00 2.1918976995270384e+01 9.2042521530687054e+01 0 0 0
912 1 1 6.2134513158842006e+00 2.5105864119901074e+01 9.4788003799888799e+01 0 0 0
893 1 1 -2.0971888855628489e+00 1.2702944292774974e+01 9.3823612607685590e+01 0 0 0
894 1 1 -2.2259347723105076e+00 1.3566476653706671e+01 9.4192061805508658e+01 0 0 0
895 1 1 -2.6171207582405849e+00 1.4351802418640274e+01 9.4619265857122571e+01 0 0 0
928 1 1 3.4134050064580324e+00 2.1641049369385165e+01 9.2704677511456723e+01 0 0 0
929 1 1 2.7845736987300982e+00 2.1120940811358174e+01 9.3334545843895185e+01 0 0 0
911 1 1 5.4129574103046370e+00 2.4901377541157395e+01 9.5291593631946995e+01 0 0 0
910 1 1 4.5843292338576465e+00 2.4481675230627499e+01 9.5608417455354768e+01 0 0 0
896 1 1 -2.6340690639309670e+00 1.5295852266907959e+01 9.4901683151714337e+01 0 0 0
897 1 1 -2.2508817384589932e+00 1.6124750951955999e+01 9.5186778305314462e+01 0 0 0
898 1 1 -1.9349763942102398e+00 1.7065611826990931e+01 9.5239744394403772e+01 0 0 0
899 1 1 -1.3991524833245541e+00 1.7921477805952769e+01 9.5302001298675577e+01 0 0 0
900 1 1 -1.0444612514839604e+00 1.8813135142566345e+01 9.5519150896290441e+01 0 0 0
901 1 1 -8.9090539635952648e-01 1.9806217660010052e+01 9.5742775198985441e+01 0 0 0
902 1 1 -1.2916769228033149e-04 2.0127451616583880e+01 9.6020709211895635e+01 0 0 0
930 1 1 2.4391635349618697e+00 2.0480688754359893e+01 9.4028568824898059e+01 0 0 0
903 1 1 5.2038096844404713e-01 2.0652773218302372e+01 9.6584122437847867e+01 0 0 0
904 1 1 8.4919477833068480e-01 2.1443752366391813e+01 9.7031196847119716e+01 0 0 0
908 1 1 3.0416966750405168e+00 2.4317886316644639e+01 9.6737930604492391e+01 0 0 0
909 1 1 3.7881290776920045e+00 2.4457452717546357e+01 9.6134572486795832e+01 0 0 0
931 1 1 2.6025691417298265e+00 2.0007146394859792e+01 9.4883897929249216e+01 0 0 0
905 1 1 1.3160529888278758e+00 2.2281473553249729e+01 9.7164779052221917e+01 0 0 0
906 1 1 1.6719268156828428e+00 2.3117532976391800e+01 9.7333342623347292e+01 0 0 0
907 1 1 2.4121764235715459e+00 2.3814545564711167e+01 9.7171493869380313e+01 0 0 0
932 1 1 2.3590860605368840e+00 1.9621313266426043e+01 9.5755803570478392e+01 0 0 0
933 1 1 2.0807073753496161e+00 1.9063026281241129e+01 9.6447435966771792e+01 0 0 0
936 1 1 2.3079472897334732e+00 1.7310966695216390e+01 9.8713735605704301e+01 0 0 0
934 1 1 2.0287119871200532e+00 1.8491917531468253e+01 9.7227844695606734e+01 0 0 0
935 1 1 2.1263537847568288e+00 1.7891577475732824e+01 9.7970728646847732e+01 0 0 0
938 1 1 3.2145794325689394e+00 1.6939386637922649e+01 1.0052696200877485e+02 0 0 0
937 1 1 2.8180269501789943e+00 1.7341544971482936e+01 9.9558999258961535e+01 0 0 0
974 1 1 8.2656928838213730e+00 1.6460194653488646e+01 9.9007375298988919e+01 0 0 0
981 1 1 4.3089826056381240e+00 1.7867234425250864e+01 1.0323029633226018e+02 0 0 0
976 1 1 6.5534955605544472e+00 1.6521600044536978e+01 9.9508989419310211e+01 0 0 0
975 1 1 7.3243024741598113e+00 1.6323449031906552e+01 9.8941768725984204e+01 0 0 0
980 1 1 4.7843967815157207e+00 1.7183930492754449e+01 1.0274982633359798e+02 0 0 0
979 1 1 5.5478530542148841e+00 1.6841605639149002e+01 1.0215515319209820e+02 0 0 0
978 1 1 5.9564585342934855e+00 1.6655388247143918e+01 1.0133703422337831e+02 0 0 0
977 1 1 6.1366284368766664e+00 1.6581762421048541e+01 1.0039804482957024e+02 0 0 0
969 1 1 1.1605586732177775e+01 1.9718936064727622e+01 9.9711776575609150e+01 0 0 0
968 1 1 1.2613717765639874e+01 1.9761005517061466e+01 9.9469708396154587e+01 0 0 0
967 1 1 1.3519816964154080e+01 1.9500470556490711e+01 9.9701200456139588e+01 0 0 0
966 1 1 1.4184429038901968e+01 1.9032082752787694e+01 1.0014820669270229e+02 0 0 0
945 1 1 5.3742973007553889e+00 1.1228080730226941e+01 1.0276888857415442e+02 0 0 0
944 1 1 5.2704448999828530e+00 1.2182650098519924e+01 1.0284533363888362e+02 0 0 0
941 1 1 4.4770374333152292e+00 1.4664213460005980e+01 1.0159737851892793e+02 0 0 0
942 1 1 4.9545543801279894e+00 1.3905823874867442e+01 1.0204784663108367e+02 0 0 0
943 1 1 5.2326387755341495e+00 1.3051182655909347e+01 1.0241717567366058e+02 0 0 0
939 1 1 3.6946782311410002e+00 1.6263554040303973e+01 1.0099676144545974e+02 0 0 0
940 1 1 4.0715945312358803e+00 1.5534665398459692e+01 1.0155760935029306e+02 0 0 0
983 1 1 2.8831263668703944e+00 1.8543652399175759e+01 1.0442519806864989e+02 0 0 0
973 1 1 9.0695045048466749e+00 1.7063470919109527e+01 9.8944299483734653e+01 0 0 0
982 1 1 3.6697901761926559e+00 1.8396044804960606e+01 1.0379731718504588e+02 0 0 0
972 1 1 9.7200971540208112e+00 1.7863400594198996e+01 9.8920765208167026e+01 0 0 0
971 1 1 1.0061881206746159e+01 1.8715118107978444e+01 9.9173212562238149e+01 0 0 0
970 1 1 1.0641287386997295e+01 1.9466718406382480e+01 9.9552703416596358e+01 0 0 0
965 1 1 1.4410735251787573e+01 1.8678347120962602e+01 1.0101741850684562e+02 0 0 0
947 1 1 5.5457621221510225e+00 9.5116412857406676e+00 1.0354343976593624e+02 0 0 0
946 1 1 5.4791566545966051e+00 1.0190281908091613e+01 1.0283957886189422e+02 0 0 0
985 1 1 1.9598745064643994e+00 1.7538454746007208e+01 1.0561821652021054e+02 0 0 0
984 1 1 2.1529402134762634e+00 1.8261875597914862e+01 1.0497033436233409e+02 0 0 0
963 1 1 1.4873262306652315e+01 1.7106160976365835e+01 1.0185756902331902e+02 0 0 0
964 1 1 1.4383341970455769e+01 1.7797665113157795e+01 1.0136227013371239e+02 0 0 0
948 1 1 6.0893556482882110e+00 9.1680690985009843e+00 1.0430711676317708e+02 0 0 0
949 1 1 6.9910311969384011e+00 8.9880511956558227e+00 1.0446905982419260e+02 0 0 0
956 1 1 1.0735309391838861e+01 1.2322069780498177e+01 1.0326950301086445e+02 0 0 0
986 1 1 1.7277159699074818e+00 1.6819601615025807e+01 1.0624944488232812e+02 0 0 0
987 1 1 1.6130892414838718e+00 1.6156065671470742e+01 1.0694084352728943e+02 0 0 0
957 1 1 1.1397651800261901e+01 1.2868684329998656e+01 1.0284781259711860e+02 0 0 0
958 1 1 1.1853302327069626e+01 1.3740131915431361e+01 1.0303688665567132e+02 0 0 0
959 1 1 1.2629332250680337e+01 1.4417831044522870e+01 1.0299047730664398e+02 0 0 0
960 1 1 1.3442797919458872e+01 1.4961120207873954e+01 1.0284508785035869e+02 0 0 0
961 1 1 1.3967396489662821e+01 1.5747368837949466e+01 1.0251719800718995e+02 0 0 0
962 1 1 1.4777186502740658e+01 1.6190081801089633e+01 1.0219963470434405e+02 0 0 0
950 1 1 7.4729744038283279e+00 9.1975255573976007e+00 1.0528938172881256e+02 0 0 0
951 1 1 8.0865203103110908e+00 9.7179724671442322e+00 1.0566082364459886e+02 0 0 0
952 1 1 8.8544843909374915e+00 1.0290784438073993e+01 1.0564638516739241e+02 0 0 0
953 1 1 9.3362336855218349e+00 1.0982081279900543e+01 1.0518666119111288e+02 0 0 0
954 1 1 9.7900968613492463e+00 1.1537673292585993e+01 1.0462073146318153e+02 0 0 0
955 1 1 9.9951608430923997e+00 1.2005974186300810e+01 1.0376770694360144e+02 0 0 0
988 1 1 1.9345288533200371e+00 1.5327539795735603e+01 1.0733510833523457e+02 0 0 0
989 1 1 2.7948445690684625e+00 1.4777058525642079e+01 1.0756089992786769e+02 0 0 0
990 1 1 3.3489725341935284e+00 1.4524790362763678e+01 1.0832092742952371e+02 0 0 0
991 1 1 4.1820156962351982e+00 1.4598242598567092e+01 1.0867482599931135e+02 0 0 0
992 1 1 5.0486372989206156e+00 1.4842264373973327e+01 1.0902687369281293e+02 0 0 0
993 1 1 5.9058708497617145e+00 1.5281845440296300e+01 1.0899576231651196e+02 0 0 0
994 1 1 6.8881471933847545e+00 1.5606194248522685e+01 1.0894637749088794e+02 0 0 0
995 1 1 7.6659743035179018e+00 1.6134971130317091e+01 1.0904911992929577e+02 0 0 0
996 1 1 8.5866884907552716e+00 1.6235201042773262e+01 1.0920484321242053e+02 0 0 0
997 1 1 9.5116928107816552e+00 1.6299694083475647e+01 1.0954372506957365e+02 0 0 0
998 1 1 1.0271561338249168e+01 1.6315024181439092e+01 1.1014838801287118e+02 0 0 0
999 1 1 1.0953578850888066e+01 1.6313893561555755e+01 1.1076720024178088e+02 0 0 0
1000 1 1 1.1390700000000001e+01 1.6006599999999999e+01 1.1155300000000000e+02 0 0 0

Velocities

8 -6.6971263821512028e-01 7.0831416078006038e-01 -8.7551168270657759e-02
7 -5.3512943559706552e-02 -7.6931084954344131e-01 -2.4109859667839770e+00
6 -1.1388409712549234e-01 -1.8776779787892850e+00 2.2405299331813073e+00
5 -5.0791352979247417e-02 9.1824631333575124e-01 -1.3770132848315249e+00
3 4.4933844035311488e-01 8.7692891078847335e-01 1.1584201348038934e+00
4 -1.0356283940588347e+00 -1.1547866629433112e+00 5.9555759852575019e-01
10 1.2155566687199579e+00 1.4448350195933284e+00 -2.0854700133545769e+00
9 -8.0182218910848646e-01 -4.6252094413752415e-02 -3.7931796844847870e-01
1 0.0000000000000000e+00 0.0000000000000000e+00 0.0000000000000000e+00
2 2.8229177748404605e-01 -1.2189901113042063e+00 1.8418278454224635e-01
11 -3.7250796229140637e-01 1.9616950746241529e-01 5.4383304093658524e-01
12 1.9609107315058386e-01 1.7868083159067170e+00 -1.0262016201872941e+00
13 -1.9383713942563824e-01 -1.1506494413347672e+00 5.3768656789940228e-01
14 -2.0788509774528534e+00 -1.5799790763117556e+00 2.2148183273494892e-01
15 -5.3768946100379877e-01 1.9491271284127348e-01 1.5125760922839675e+00
16 -2.0670193324958657e+00 -1.8802288521144417e+00 -1.2566903375609770e+00
17 -5.2706322208105649e-01 -3.3155520847916287e-01 -2.6545263746879455e-01
18 1.7588751025377496e+00 1.4840747883605729e+00 -2.0350571917459184e+00
19 -8.9552410133400229e-01 -2.5908483765457753e+00 9.4194044301038504e-01
20 -1.6028168243760327e-01 9.4333666572550223e-01 -1.4332803296562824e+00
21 -7.8140173679275937e-01 1.0363706499511336e+00 -2.0940481225653204e-01
22 1.3854474295684489e+00 9.9899914405091983e-01 2.9968867359799339e-03
23 -1.0081695555295600e+00 -3.5396039482281956e+00 1.2452880983446923e+00
26 1.9506197778228299e-01 -1.5567252218821908e+00 8.1743634425671974e-01
25 1.7578648296985535e+00 -1.2263241911492582e+00 -1.9213272286100058e+00
27 -1.5589092808328526e+00 5.2531714661047735e-01 -1.3465341631936717e-01
28 -9.3312960164966507e-01 1.7059477602204334e+00 -1.1101356043763799e+00
24 1.2663003533521175e+00 6.5189251448324059e-01 -3.4006486399686980e-01
32 5.4973565952560488e-01 3.3048192520766545e-01 7.7591844141501753e-01
31 3.0600952501291506e-01 7.7373092469105553e-01 -1.0701165697325001e-01
29 -1.4318511636200509e-01 -1.7119649087881381e+00 -1.2150777350612803e+00
30 -1.1652632908666771e+00 -1.2008393549106688e+00 -1.7787934953332829e-01
34 1.0749535994442532e+00 8.1108417402641020e-01 5.4871829764695908e-02
33 -8.4640278132448876e-01 -3.1242243851124629e-01 -5.2611213306842763e-01
58 -3.6169441697907928e-01 -9.4916013797885246e-01 1.8794932342844206e-01
59 -4.8112354708872107e-01 -1.5454190543709234e+00 3.4865859002938043e-01
60 -9.8180562364685797e-01 -1.2570052581723748e-01 -1.3433171185486481e+00
61 5.5026825677227598e-01 7.2978746364576441e-01 8.9291737193828680e-01
35 6.3609648640946248e-01 -4.9546619787720947e-01 1.1514041341937195e-01
36 -5.8855855347717034e-01 1.1801597271100239e+00 -2.5151901718606517e-01
55 -1.1253525261223127e+00 1.1395314440415699e-01 -6.7226859778737724e-01
54 9.9806748524713385e-01 1.3366601489603305e+00 -1.3173540695312929e+00
56 5.6884553548154353e-02 -1.4236786200009472e+00 -3.8578302803640907e-01
57 9.7903627772843349e-01 -8.9035136503039158e-01 6.1299969242720387e-01
52 -1.4121026853337310e-01 6.5388373169855363e-01 1.2353112675586342e+00
53 -6.4107057224384090e-01 -8.5127085162564176e-02 -1.0342552313284643e+00
62 4.9982954438240168e-01 -4.8646354351599752e-01 1.3461708365111809e+00
63 -1.3151905175663234e+00 3.5223281274169704e-01 1.4117165092481250e+00
38 1.1343807690631151e+00 -6.8325132394016153e-01 -1.3351346437393921e+00
37 3.5417144752774360e-01 -3.9260112724313068e-01 -4.3445215839244189e-01
50 -3.6323335741832045e-02 -2.6028297679144718e-01 -1.9915056190881433e+00
49 -3.6538089135867791e-01 1.7362397276091983e+00 -1.6256887420314190e+00
51 -1.5114989740682508e-01 5.1969123001720330e-01 -4.6970592801279709e-01
48 -1.2385595110989420e+00 1.7510756917196775e+00 -4.3623306042833196e-02
64 7.6740892354962964e-01 -4.5445323668140003e-01 -2.0782793699176355e-01
47 9.9965866442232743e-01 5.6683758690726360e-01 -1.9372245330743643e-01
40 -4.9180440118198027e-02 -5.0599729724595188e-01 5.9670019729826307e-01
39 -6.6561788728092916e-02 3.6513991816339070e-01 -1.1838663786195334e+00
87 1.2455148618961542e+00 3.6426278095576781e-01 5.8679849454174615e-01
88 7.4899849427464127e-01 7.3881955792633258e-01 6.3601835418105923e-01
89 -4.4083486062914767e-01 1.4856337086002311e-01 -1.7821260982287485e-01
65 -4.4044782904041613e-01 -5.5007217136181863e-01 2.8671765146782260e+00
66 1.0574681403033159e+00 2.2879688062624931e-01 -2.3588623531284134e+00
46 -4.1237136205573827e-01 -1.6088456749399122e-01 -6.4659369298184180e-02
44 6.8669442035909078e-01 3.7784741318721915e-01 -1.8507205796658661e+00
45 -7.9417720347664100e-01 1.3038864534755217e+00 -6.8647060419618311e-01
41 -1.3933207767724718e+00 6.5851321762537129e-01 -9.1058311673509595e-01
42 2.4581040136858916e+00 -5.1276333529747409e-01 1.2331127272100864e-01
43 3.3876527167251716e-02 -5.3606596017397290e-01 8.1108390237528061e-01
67 4.3884653410951108e-01 7.7867066858862133e-01 5.0558044334039998e-01
86 1.9601964384966450e+00 5.7728316563447979e-01 1.9363472362304111e+00
90 1.0732292679694049e+00 -4.5534115664380503e-01 9.2607380876414869e-01
91 -8.2692701822675052e-01 1.1271876628398572e+00 1.6773168138867252e+00
92 1.1952452687404858e+00 5.3263099570198336e-01 1.5821433859182621e+00
93 -2.7295256843419957e+00 -8.4636066616848593e-01 6.2050242624886542e-01
85 2.1399248100051653e+00 -2.7016330062309186e+00 5.1192392705083101e-01
84 2.8607057945973713e-01 1.6306707782113856e+00 3.7105562451256119e-01
68 7.3759292051155745e-01 9.0852043755252843e-01 -4.8900576585039762e-01
94 1.5984878921065078e+00 -1.2325647742008101e+00 -1.2968832783548616e+00
95 5.9481405512686292e-01 1.7701042400189539e+00 -1.7410797455675081e-01
96 -8.2398610193250454e-01 -3.6452875242377447e-01 -2.6272932497532830e-01
97 -7.5602219501940182e-01 -5.3251877787996693e-01 -1.8245326517055209e+00
70 1.5559225612927141e+00 3.2184154141940546e-01 2.3004852144260030e-01
69 1.1456992980002165e+00 3.1365216519893224e-01 -5.5750427984290729e-01
83 -3.8362971316474936e-01 -7.9348943629238777e-02 2.1936771663486165e-01
98 9.4526038506260901e-02 2.6875904983076432e-01 7.9294182260210622e-01
71 -2.0230562032637862e+00 4.8392503998918474e-01 -1.4374073775664162e+00
82 1.2662677274450580e+00 1.4570054539454114e+00 -1.8710909727207639e-01
81 2.2807828112316705e-01 -4.1797811936681062e-01 9.7908757169042360e-01
99 1.4287823380352975e+00 -1.2138093495742390e+00 -8.1383928086656510e-02
73 -3.7753635425661547e-01 6.9677395577139412e-01 -3.9592845520876419e-01
72 7.1561363887464868e-02 2.9088867815973827e+00 1.2415431890024804e+00
80 1.6970528686087034e+00 -9.3142622692563659e-01 -5.2069430463334165e-01
79 1.1458990018164026e+00 -1.1013381940450051e+00 1.0600408557588115e+00
78 3.0987013710085792e-01 2.5513572340469071e-01 3.0038427433297765e-01
77 -6.1949914821770091e-01 -6.1896742527182802e-01 -1.6238181682473704e-01
101 -1.6079642545331700e+00 -1.4310975775467979e-01 -5.7065604868436415e-01
100 -1.4035623639655106e+00 -6.1177367829117046e-01 -1.4959467040292024e-01
76 1.7787622827673885e-01 1.0669558404060737e+00 1.9732127262053889e-01
75 7.9702184699390077e-01 9.5476765535307984e-02 -5.2626353120254188e-01
74 -1.4445016611478310e+00 -2.5669820188385517e-01 -7.3367104516312454e-01
102 -5.4464884991283624e-01 -6.6517802589468822e-01 5.1237651499284320e-01
103 -3.4930699865419856e-01 -6.5018435321178480e-01 5.7946391547932463e-02
104 6.1170440305612694e-01 -3.5158024130164195e-01 -2.7013543430350527e-02
105 -2.7109254771106417e+00 1.2519668490258570e-01 1.7889668887050729e+00
106 7.0690573575194504e-01 -1.3504523460370313e-01 2.1754823504334919e-01
109 -1.0836888080963414e+00 1.6038875024409025e+00 -1.6069495887138709e+00
107 9.2292413418213493e-01 1.3852631768681054e-01 4.0361877835316484e-01
108 -8.3871768124985080e-01 8.5023005611488095e-02 -1.6869405102461061e-02
111 6.1754828602387213e-01 3.7950705745521718e-01 -8.1533773190354564e-01
110 1.8207106662531527e+00 7.5414425842711563e-01 2.5291691266389205e-01
113 -1.6033529793265342e+00 9.7122473849861324e-01 8.1100500069841841e-01
112 -7.0060706406338369e-01 -1.6003170322142533e+00 -1.0692174615069261e-01
114 -2.2454481928526975e+00 9.0797475564377605e-01 -4.7525679232368695e-01
157 -2.0535730291127781e+00 3.1169873834118006e-01 -8.5609139792274036e-01
159 -7.0138009866655027e-01 1.9263415847451983e+00 -3.4687914381769425e-01
158 -6.7030516302058218e-01 1.1440516568998496e+00 -2.2330869971528808e+00
156 6.2547439642109848e-01 -8.9018321275693357e-01 1.0746508391739682e+00
115 -1.8479803179928693e+00 1.0742596916513179e-01 1.3167673051149709e-01
116 1.4574279729877277e+00 2.7862480552376034e-01 -1.4739528498178966e+00
160 1.1065932141584807e+00 6.3897798760985869e-01 -6.1479478247525227e-02
161 -1.1002063867346198e-01 -1.8774901181978290e-02 -2.5889166485841286e-01
155 6.0994504490607770e-01 -4.3536330011317757e-02 -1.2599606448315239e+00
154 -1.2157958129741786e+00 -9.4810845078800654e-01 -9.2798936375168761e-01
153 1.1943690254391784e-01 -3.5607214597345685e-02 1.1294184003265415e+00
117 7.1051105300480277e-01 2.0205021461995035e-01 -1.6740054041225825e+00
162 -2.2782994451444952e-01 9.4775398345597950e-02 2.6804498085607353e-01
163 -3.2698591355075185e-01 -2.7518571350687160e-01 -1.7453849602262217e+00
152 1.0061069826196625e+00 -1.2512948435591625e-01 8.6986276794750217e-01
118 4.1908324404671077e-01 -4.5805922303354230e-01 -1.1587778156781131e-01
119 2.2549345509617904e+00 -1.1961538150200797e+00 -1.2020772492939247e+00
164 5.9489570082840212e-02 1.5890407985085023e-01 -1.7264268535678728e-01
150 -8.9107898641050265e-01 -1.5872460913019165e-01 3.3108649356270514e-01
151 9.5622160144821722e-02 -2.8098422836054759e-01 -2.1627154988994174e-01
122 3.2290105897006582e-01 -1.4952400271661708e+00 6.3370392438667600e-01
121 -8.8205052224486891e-01 -1.8227294118354640e+00 7.2239331119950889e-01
120 3.9939129141877966e-01 -2.8650518435068795e-01 -8.9004258550572402e-01
123 6.4818859733950096e-01 5.1842208262847445e-01 2.5360377176242543e-01
165 -1.4442900815039055e+00 1.8413762189784459e+00 -3.8534241140483017e-01
149 -1.9424808306842396e+00 -3.4633020234426359e-01 6.7874350557068019e-01
148 -9.3003723471632785e-02 -1.1648071711342352e+00 2.4979480996084815e+00
124 2.8239014350760200e-01 -4.5174933964717806e-01 2.8748833575959090e+00
125 2.9423981082936493e-02 -1.3618865444878057e+00 2.5398716960819145e-01
166 5.0211858840405821e-01 -1.6902229287462361e-01 1.8901633431376955e-01
167 1.7857213908952263e-01 3.8897447173022492e-01 1.1997632784206769e+00
147 3.0053784196782923e-02 2.5413715070712870e+00 8.0986535694676609e-01
146 3.8710318442046798e-01 -3.8519209304298579e-01 -2.3570364878452166e-01
145 1.9062618986549151e-02 4.8247955532960735e-01 -1.7831350849701539e+00
126 -1.9261646230734208e+00 -1.0807325016605553e+00 1.7628033422523848e-01
127 9.5092387037641890e-03 -1.1445648243943183e+00 8.3928715227508754e-01
128 1.4352675485323168e+00 5.2065260915666789e-01 1.0137357200951989e+00
129 1.2081620284283758e+00 -7.3456963868944836e-01 2.3251875585801322e-02
168 -2.5747030359620515e-01 -4.1776936655782271e-01 2.5803660240847703e-01
169 -3.3618105855224362e-01 6.9800012007825873e-01 1.1764516827724252e+00
144 5.3561232631489553e-01 9.9107184619108668e-02 -5.5127135541146810e-01
130 5.6244321644096529e-01 4.4353591660021752e-01 -6.4247633976422946e-01
131 9.6315908636306979e-01 1.4670222937915423e+00 -8.6973543183195978e-01
170 -2.7030847395875079e-01 -2.1509924596332883e+00 -2.1026996114597846e-01
171 -9.5809748070455147e-01 -8.1262430040896894e-01 -2.0141628456108804e-01
143 -2.2384702740765490e+00 -4.8919327602945001e-01 1.3649729408734460e-01
142 1.3323602660411915e+00 -9.3019324033547524e-01 -1.1002700254355982e+00
135 1.0871355523752588e-01 3.1058358216617732e-01 1.1403607013412287e+00
133 -7.6790011436873085e-02 9.8637040593748421e-02 3.1046144719124957e-01
134 -1.0730007758652671e-01 -1.1632365757464878e+00 -8.5156181811530085e-01
132 4.2644189402551108e-01 5.5075732665883770e-01 -8.1231358073397875e-01
172 1.5618029670790767e+00 4.6249809885657994e-01 -7.1430787532319751e-01
173 -1.2945104242318695e+00 1.8809799861946094e-01 -1.9116336689493640e-01
141 -1.0013452708686859e+00 1.0646580252761850e+00 -1.4193346129542789e-02
140 1.2916522665273575e-01 1.0334935429904522e+00 1.1758520082191226e+00
139 2.4122387851136823e-01 -6.1516455505829637e-01 7.7495922406409151e-02
138 8.3686479538111935e-01 -1.4409323852002216e+00 -4.2523928379885823e-01
136 1.4262903034107717e+00 -1.3019097457106560e-01 -1.3445941608351055e+00
137 -3.1310103995801275e-01 -5.6872474500966747e-03 -1.6607403014566877e+00
174 -3.2867596461293380e-01 1.3882436638379914e+00 3.3381584999507508e-01
197 -1.6307256722845903e-01 -1.1425485369819401e+00 -1.7164720186889750e+00
196 8.8389246720423542e-01 4.6525576453160467e-01 3.8908971146295679e-01
195 -1.6333726856115460e-01 9.2996261773399147e-01 1.2956412171484821e+00
194 7.3152074995854366e-01 -5.5505989100443798e-01 1.0480500856196340e+00
193 -7.7321075285127028e-01 5.7779727178294848e-01 -2.2824716424299477e-01
192 1.0003275256596322e+00 -3.0599791686530065e-01 -6.6484889063128338e-01
191 -6.6061467975040611e-01 4.2652339534420386e-01 1.0473376175707436e+00
175 -5.4412953627718241e-01 1.9751837625170610e+00 9.3033009213570184e-01
190 8.8186980214696464e-01 7.4842574034869014e-01 6.6060522687270229e-01
199 -1.6611828517397533e+00 -1.1912422616687659e+00 -2.2371874452194485e+00
198 -1.1822940555598969e+00 -2.2664018188183846e-01 -1.2245658333736517e-01
176 1.2913397506003910e+00 -1.5796232156099417e+00 -8.9388072187501266e-01
177 5.8068599774905105e-01 5.1490422841450356e-01 -5.1029025891026070e-01
188 2.4616004718457454e-01 1.2751028675131828e+00 8.2674956091048757e-01
189 -7.6016888681180039e-01 1.0932153070737538e+00 -8.8296973162438763e-01
187 1.4961050058151759e+00 1.7445082462692743e+00 2.4892545869290655e-01
200 -5.2720597508896405e-01 -8.2751878003052559e-01 -1.1456600122847220e+00
178 3.8923341892458563e-01 -9.0417354108654135e-01 6.5081825541466254e-01
179 4.4748775328533125e-01 -1.3732948246322141e+00 5.8375899438064116e-01
180 -2.2710601633385102e-01 1.8675856088145208e+00 -1.5879190132158083e-01
181 1.3909866102396085e+00 1.6153446457930890e-01 -6.0510162969235215e-01
182 1.4006962603646760e+00 1.7660529361048022e-01 -3.3208204245537865e-01
183 -1.0356243048715220e-01 9.6251715963988016e-02 9.9311373171712758e-01
184 -3.5051471189252936e-01 1.1255360382319330e+00 -5.8590183011410868e-01
185 2.3090355954946036e+00 9.0476992762783759e-02 -4.9892825645512950e-01
186 7.6409867561965905e-01 1.3324035618620194e+00 9.4356197581145396e-01
202 7.3091144403898145e-01 5.8838097303662029e-01 -5.9111491540704852e-01
201 6.8476522270054102e-03 1.9432101026462343e+00 -7.7761334269417248e-01
203 5.5356112606231633e-01 -2.9237764880271849e-01 -1.5935981626937921e+00
205 -4.0903297475756006e-01 1.1655480244168017e+00 -8.5747309620541856e-01
204 -7.1485466097122130e-01 1.4268584040073615e+00 -7.0556343912169583e-01
206 5.8932265979497545e-01 1.2326856506138708e+00 -1.7570002781166730e-01
209 -1.7765495228466264e+00 -1.0780372274784455e+00 -1.1678396208585242e+00
207 1.8011199277734510e-01 5.1885105010851607e-01 1.3872865136811632e+00
208 -1.8006658162530189e+00 -2.3758625518952523e-01 -3.6125463565883420e-01
211 -8.8889354607245896e-01 1.5403548871989587e+00 -1.7253689280489133e+00
210 2.8830959742160778e-01 -2.0635215648757677e-01 -1.0617335638005119e+00
217 -1.0819532491862893e+00 1.1430322836018860e+00 1.0729960556390981e+00
215 3.4739952079477676e-01 -1.3824201982453224e+00 3.1694837136767107e-01
216 3.5763854772210174e-01 4.9837168005645310e-01 1.0366432654166915e+00
214 -1.6331581235828172e+00 -7.9303804212755902e-02 -7.8554126257371470e-01
213 3.5022059498213498e-01 -7.1854093105317568e-04 -8.9798808164320154e-01
212 -9.8190583989634184e-01 -5.7449283679004448e-01 -2.3928754065731075e-01
314 1.0822548909896752e-01 4.7951538987458797e-01 -4.6299564102519203e-01
315 -4.8536550997379085e-01 -6.2042445785794076e-01 1.1769708582721103e+00
313 -9.0948718262243405e-02 6.3667922839429658e-01 -1.4997125671183618e+00
312 -3.3577689802329047e-01 1.5268569557492320e+00 1.7914836273193535e-01
220 -2.6799513132995834e-02 -7.4973775694781197e-02 4.7030510039848539e-01
219 8.0423073525860655e-01 -6.9481913537503948e-01 4.6756414457289402e-01
218 1.3166469672033831e+00 6.6835050328090972e-01 -1.1856044921096751e-01
321 9.0076129818191142e-01 -8.1678146137040009e-01 4.4351075812672053e-01
320 -8.0225234888396280e-01 -3.9044574680079158e-02 -8.0530441798930374e-01
318 1.2360865979161388e+00 -6.4192376214528468e-01 1.3511358238462390e-02
319 -4.7651672101463510e-01 -7.7432284971612336e-03 -1.4119259436133915e+00
316 1.0567779390264067e+00 -2.4330220220750826e-01 -4.5302585216695601e-01
317 -1.1733518124126159e+00 -9.5548504464910500e-01 4.1238146418950150e-01
311 -1.9381845238901778e+00 -3.6808598830888939e-01 -2.7526675167684012e-01
224 -1.0711531701557614e-02 1.7659000505003690e+00 9.9889389748046475e-01
223 -5.0409856425928123e-01 -5.7618634931824553e-01 1.1285403977716855e+00
222 -6.8175397039547614e-01 8.5392856756263569e-02 7.7281256607896764e-01
221 -1.2966839151243572e+00 3.9738932774431718e-01 -5.8880649521588224e-01
323 -1.0589955512933789e+00 -1.2438049138600014e+00 -1.6553387943312730e+00
324 -1.1228862003693343e+00 -1.5794455527771971e+00 -7.1910237572097691e-01
322 4.2816840360284192e-01 7.5112366227336524e-01 7.6545617238389396e-01
309 -1.9078534391585278e-01 1.4906336808114877e+00 -1.2510436577215778e+00
310 -9.1689331496762838e-01 -1.0309927832800057e+00 3.0193504551675426e-01
225 -2.0414372372836684e+00 -3.0606837798017579e+00 3.0602052460833967e-01
331 -8.8109585641176524e-01 -1.8529087412126037e+00 -1.7842991908281691e-01
333 -2.9216198220626866e-01 -9.4962391274374791e-01 7.6156068746173200e-01
332 5.1725339829170414e-01 2.4472182331857234e-01 8.2133054624799329e-01
334 -2.0508841880646145e-01 -1.3310574045129187e+00 2.7091698151333216e-01
335 -5.5617227113596235e-01 -1.4838805874150516e+00 1.3072339201612965e-02
325 -2.0690720043171479e-01 -7.7739964598162969e-01 4.3580169226487719e-01
326 -1.3717789459845392e-01 1.7642310235367544e+00 -2.3954387708036742e-01
308 1.1672254766893881e+00 1.2129894420552551e-01 2.6638780348674518e-01
226 -1.5728942213345136e+00 -2.5258733903080549e-01 -1.4381022132045125e+00
227 -1.1707757303530728e-01 -1.0573341904766664e-01 1.8234825952512629e-01
228 8.1894026413042631e-01 -5.9575339105499348e-01 -1.1591560066604161e+00
229 7.3338529862374624e-01 -1.6832366810124486e+00 9.3008595209885170e-01
230 1.3173695437698796e-01 1.2731551009031847e+00 2.4522820957100491e+00
232 -4.0097618697057066e-02 -2.4479871017943283e-01 -9.7032664292593840e-01
231 -4.7327275393219542e-02 6.7781784116503974e-01 -4.4247996393193700e-01
233 -1.6762152573666076e+00 5.0714026488347097e-01 1.9422119131769380e-01
330 4.7065566052997165e-01 2.5815040346444301e-01 2.0572806228344289e+00
336 -4.8187656644591709e-01 -7.0545632522334945e-01 8.9307259075478407e-01
328 1.4245066410925940e+00 -2.7314752797892111e-01 -7.6978778631979250e-01
329 -3.2577738378463067e-01 -6.0867716635864511e-01 1.0616273796816906e+00
337 1.9682363761707173e+00 -4.9332474191773701e-01 -4.2415847168423171e-01
327 3.8803285617779615e-01 6.6806136697891072e-01 -3.5218749336870464e-01
307 1.3666443601198925e+00 1.6824460632774123e+00 7.3988386846759457e-02
234 -4.0381417056656699e-01 -9.6819790066760292e-01 -1.3511589695607928e+00
235 -7.9770372151013569e-01 -7.4062907738214467e-01 -7.2017643280866761e-01
239 7.2089033657874890e-01 -9.9906044890816587e-02 5.3681910064234084e-01
236 6.0298596548641203e-01 5.3575472200412788e-01 -1.9421797251901332e+00
242 -6.1686494749602105e-01 9.3775902820712465e-03 -1.8062758970602337e+00
241 2.7524855617573135e-01 6.1749970191887049e-01 -6.7017168371756497e-01
240 1.8412604528110448e+00 -1.4014373976187793e+00 -8.7302535243147183e-02
244 5.0884718547830710e-01 -2.8682553117126386e-01 -3.2999597943722148e-01
243 -1.2025194331912610e+00 7.7520036980968654e-01 4.2254755280518086e-01
338 1.5954587332115673e+00 5.7473186284537225e-01 6.9359381600141945e-01
245 -1.6652056890146705e-02 -2.9615344541529605e+00 -3.4362684113461767e-01
306 3.8602547867304410e-01 -1.0748693390828297e+00 -2.6771222725218093e+00
305 6.9360511142718306e-01 1.1113278951506183e+00 4.5273589026381061e-01
238 -1.0281171024150504e+00 -1.9680191426233422e+00 -3.1268898510399568e-01
237 3.1703703571053043e-01 -2.7729126726225661e-01 1.4677337623370854e+00
339 1.0281991966637487e+00 5.2078586347717881e-01 -1.4072828204772478e+00
340 1.1133691393505154e+00 -1.6907580046768339e-01 -4.1615758077693987e-01
247 5.9577910775533194e-01 5.0213853047224244e-01 1.3791888499956872e-01
246 1.5922144618454914e+00 -6.7835923646805574e-01 5.6688148958007967e-01
304 1.3760401345629567e+00 1.3227973429406124e+00 7.5918471482176852e-01
341 -9.4619084970609335e-01 -4.6234606861836819e-01 1.7225956190446590e-02
342 5.6170897739162584e-01 1.6100483391820175e+00 -7.7013027790601307e-01
248 -2.6846618226801078e-01 -1.7371085484073398e-01 -1.1361433248303614e+00
249 2.4116126763049400e-01 -1.2059445019702122e-01 1.7587034719643397e+00
250 1.3119694191034204e+00 -6.1667448565586902e-01 6.7176993077435276e-01
251 -7.0464520135711894e-01 -1.2949183586358850e+00 -4.4708443859850894e-01
252 -9.5526241270957790e-01 6.4281889861359376e-01 -2.1446987256428964e+00
253 1.0290249333510859e-01 -4.0983788607067984e-01 -1.7194879241464398e-01
254 4.0974212884556638e-01 -1.0360311242594458e+00 -1.2310601963555849e+00
264 -5.9723607240452975e-02 4.8773310306944029e-01 -8.8457302241432867e-01
258 -3.7635005354866613e-01 1.0559488539126223e+00 -6.6562420921971499e-01
260 -4.7122848552263252e-01 -4.9781446523540884e-01 -1.9506134534593261e-01
259 -9.4603823448689867e-02 1.4718327550052024e-01 -1.4011330019225587e+00
261 -2.7036162688074219e+00 -1.6809558531088780e+00 5.8003560910722105e-02
262 5.6176287792513768e-01 6.9978948124029189e-02 -2.2487741290797045e-01
263 -1.9334953533162608e-01 -1.9902616359714274e+00 2.3484997445307124e-01
301 6.3215990080140616e-01 -1.0334034768765590e+00 -2.3349858714292460e-02
302 -5.3592237800551368e-01 1.2044241300473801e+00 -5.6352865213103198e-01
303 -2.4694527075728306e-03 -3.2186654824384364e-01 -4.4152686907974564e-01
343 -1.0691402689294027e+00 -3.2365249285603503e-01 1.2907820517605038e+00
266 6.2257663434988220e-01 1.4577806451876125e+00 -8.9384963495158121e-01
265 9.9120834102586142e-01 1.0231509613861243e+00 9.7374275807418231e-01
255 -3.6635988902733918e-01 8.3137101712923622e-01 -3.1264759113676088e-01
256 -5.4493116919358608e-01 2.4263497118727817e-01 1.6171866895451414e+00
300 -5.2703383073434928e-01 -1.7318466052868797e-01 3.1344677235475085e-02
257 -1.8217961040839770e+00 8.6088962792904433e-01 -2.3568631573944820e-01
348 -1.4321573554132188e+00 2.9764138913305832e-01 -2.2164349886599560e-01
347 -5.8260520366000002e-01 -4.1593941428074860e-01 -9.5269460170437748e-01
344 -1.0546576156646301e+00 -2.6666780688503117e-01 -8.9184199438633913e-02
345 7.2268424699549738e-01 -4.1663517409853962e-01 -4.0664175547180537e-01
270 6.2102563812464073e-01 -1.5728636164231500e+00 1.4946800832475315e-01
269 1.1189336708039677e+00 -5.5164894663157815e-01 2.6439879896529239e-01
268 -4.4732009533054673e-01 1.2980352978684913e+00 3.0014338868347312e-01
267 -8.4605126754846560e-01 -1.1054444054359294e+00 -5.0012559179503946e-01
299 6.6389928729512171e-01 -7.4930343479009021e-01 -1.0799352309660313e+00
352 1.2683817469660452e-01 -3.3633136690566606e-01 3.4004929206703949e-01
351 -1.6407393211067248e-01 -1.3270541627461609e+00 1.1528630332292837e+00
273 -6.1901069263932545e-03 1.6327008296003798e+00 -3.4134282184909048e-01
272 -1.5897835205910598e+00 1.1119178257122968e+00 2.4958205898767005e-01
350 -1.9781313212631588e-01 8.0618476685886775e-01 -2.1670003873448467e-02
349 -8.2653342332560853e-01 1.8135798975815393e-01 -1.3083703352444027e+00
346 -6.0454143989522480e-01 1.6136375500642754e+00 1.7196887237224803e+00
271 -1.5587842696421439e+00 7.3392587825519284e-01 -2.6641707842087072e+00
298 7.9846607837638262e-01 -3.3869805221386251e-01 4.9301805413121769e-01
297 -9.3386027516059811e-01 5.9983085920466661e-01 1.8172369866679805e-02
277 1.1859911377289303e+00 2.7728199348524996e+00 1.4072627717485091e+00
276 1.9278258108646220e+00 4.0769200093871155e-01 1.2081163940535200e+00
274 -2.9859343337083655e-01 -4.9415684045555464e-02 -1.1358149857411259e+00
275 -4.2518447908660550e-02 -9.7158625734115800e-01 3.3448488448835761e-01
353 6.3332434463637610e-01 1.8173172020911028e+00 -1.6151853374005021e+00
355 -6.9801907753722547e-01 -9.2073346926246447e-01 -9.4881332961789944e-01
354 1.1121390079222211e+00 9.0409861631813304e-03 8.2616087251095260e-02
360 -3.6919018110946578e-01 3.0800129208881849e-01 -3.0381902230524849e-01
359 -4.6673385425946090e-01 -1.3973484353614269e+00 -1.3267377614545159e+00
357 -7.8577187533519888e-02 -1.5015368260260837e+00 3.2455892440228298e+00
358 6.7725943656632204e-02 1.3017879669108207e-01 -6.2816201477269351e-01
356 5.2038115988811195e-02 3.6042726523646584e-01 1.1872919153169370e+00
296 -8.1764020908829976e-02 8.3151082752970784e-01 -8.3827854145002345e-01
278 -1.4245819157343415e-01 -7.8472991401994996e-01 9.6791985363620714e-01
279 9.9683353906313643e-01 1.9160825720649968e-01 1.0343417131635690e+00
362 -2.4228910548480215e-01 -6.6233630522440112e-01 1.3132904575316862e+00
361 -4.9310224675101166e-01 -2.4203004486181501e-01 1.6812778965565356e+00
293 1.5434663947821397e+00 1.5926279164166482e-01 3.6336886607454921e-01
294 1.1022475745360722e+00 -7.3548074616426884e-01 3.1075037832235325e-01
295 -5.1881204900983732e-02 1.3600849511227922e+00 -9.9635826805647143e-01
280 2.6990506142463844e-01 -3.9595228089233653e-01 6.3797625703154570e-01
281 5.0113828168330488e-01 2.7897408331039519e-01 -6.9803027073261792e-01
282 1.2693144801668961e+00 -1.0070292538242458e+00 1.6972512909041906e+00
401 -1.2204650742586827e+00 1.8608028770817064e+00 -9.1778785707478094e-01
402 -3.6223163860394014e-01 -5.5701800862120776e-01 1.1329001180070664e+00
403 5.4987256309508858e-01 -1.1725569584956568e+00 2.6186826986857115e-01
363 1.2268307195420571e+00 -2.2384331402779800e-01 5.3276887837977849e-01
404 1.3186521024250772e+00 1.3067125277088527e+00 1.9726725172124302e+00
291 7.2847322922182367e-01 -9.7238273948193774e-02 5.2754821379468442e-01
364 -5.2032630437276606e-01 3.8936113832755492e-01 1.6559899071762361e+00
292 1.0783974728681522e-01 2.1692779714421251e+00 4.3064859756853641e-01
283 3.7912326938245533e-01 4.1235614130461651e-01 1.2180889970869964e+00
284 1.4999320562499419e+00 -6.8772125884409829e-01 -6.1891831356704474e-01
285 7.5073623656300348e-01 -3.0348728385107127e-01 -1.4026865365312993e+00
287 9.3438919505476159e-01 -1.4423204885456498e+00 -8.2174543489171345e-02
286 -5.0429833370966637e-01 1.9011714913299083e+00 2.0532070529453530e+00
288 -1.1727378716390249e+00 7.7653075884546419e-01 5.5134341107167206e-01
399 8.0193522990537780e-02 -1.1798304889243250e+00 2.1574482069120511e+00
400 -8.5130030908457488e-01 1.2502155066316485e+00 -8.6632934099947023e-01
289 -2.9032135104354367e-01 9.4288880721654444e-01 -1.1637681383872696e+00
405 -3.1417337830783798e-01 -6.8853918753048160e-01 -5.2859753774040552e-01
290 -3.2189061564710397e-01 1.0008373245133664e+00 1.8236044201952979e+00
365 1.5781392297122798e-01 -1.3016780093304173e-01 3.2971719777976971e-01
406 -2.8097554293948002e+00 8.7863384609338135e-01 3.8821134080596958e-01
366 3.7259853505878016e-01 -7.5302678181675275e-01 -5.0856542592070703e-02
367 -7.7434404993821326e-01 5.9903054686796531e-01 -5.6142419699219903e-01
407 -5.2443245894158097e-01 -3.7379982459538275e-02 -4.4972121798855830e-01
396 1.9944047136877887e+00 1.6443498450220306e+00 4.4410312942825370e-01
397 -3.1326953925472589e-01 1.4208816168480292e+00 2.4635221889221276e-01
398 -4.8840350101234059e-01 6.9222053029558106e-01 7.2353307562644714e-02
368 5.4838974102902449e-01 -9.9976692123201039e-01 -5.2333740239750703e-01
409 4.4717144010964821e-01 2.8909816759957668e-01 2.0338482364037103e-01
408 1.0195521985471108e+00 1.1678559750037152e+00 2.8512258147543879e-01
369 -3.4989218146885170e-01 -1.9515318702166058e+00 8.4025715269302381e-01
410 5.4732502942168570e-01 -8.3178521548971407e-01 3.4625588997103945e-01
395 -1.5512372946712416e+00 2.8910107701688392e-01 -5.9472272838219564e-01
394 3.8079851007120979e-01 7.1625920342069460e-01 -2.6637661560251895e+00
370 2.8930328614602707e-01 -1.2385953965476406e+00 -1.2649271624933434e+00
411 2.0159136375539610e+00 -2.9622608665460121e-01 -1.4661406755933049e-01
393 9.7607338212390904e-01 1.3691497534255141e+00 2.3700481630234588e-01
392 -7.5963113221838374e-01 -2.5744241109264783e+00 -7.3000882102549791e-01
372 1.6585504052236016e-01 3.1265069213770313e-02 7.8056836330847579e-01
371 1.0750258649873230e+00 -5.2267816117463561e-01 1.4674034882530893e+00
412 5.4365493301957935e-01 -5.3581902992888786e-01 1.1421024650698324e+00
413 -4.0395469574711762e-01 -1.2783679141402089e+00 -4.1814366430572619e-01
391 1.7007705133719773e+00 -5.7580604938771235e-02 3.1809690694241344e-01
390 -2.5819554001451023e-01 -5.5938740644656293e-01 1.3767072017889386e+00
374 9.9133999733748657e-01 1.2310844426023344e+00 1.5339022185310741e-01
373 -2.0841185026051114e+00 -3.5195385491800324e-01 -5.1236116732434411e-01
414 -9.5334557725724212e-01 1.8549481305238344e+00 -1.0918359284427275e+00
389 1.2410077236673513e+00 7.5240833414714314e-01 -5.8778729613609093e-01
388 -1.8118980045899952e-01 4.0819999302482063e-01 -7.5206974958000417e-01
375 3.5825800273524500e-01 3.4501635740945874e-01 6.5864064673956824e-01
376 7.9522289327449469e-01 -5.2255808807992699e-01 2.0935915523134785e-04
415 5.5565321772928833e-01 1.9262386911975288e-01 -1.4578263726569121e+00
416 1.3904181419083023e-01 -2.8388400798826352e-01 -1.1529072092684076e-01
387 9.9093686959764948e-01 4.3410234809631021e-03 -1.3422690021521599e+00
386 -1.9317093478186822e+00 3.9017198265442010e-01 9.3003819196514637e-01
377 6.1480802839492099e-01 6.5647714582840267e-03 -3.4753681290665939e-01
417 1.5206901249128697e+00 7.0061713765527422e-01 1.6700482047474124e-01
384 6.3850408403123038e-01 -1.7798238489483129e+00 -1.2840991137825020e+00
385 6.3637900015995919e-01 -2.8820299290970053e-01 4.7052518638325391e-01
380 -1.5563322853229697e+00 1.2002480315262862e-01 -1.2692037117713317e-01
378 -1.2411635380246508e+00 7.5154982055635922e-01 -2.6280084558743511e-01
379 -2.6449379413386080e+00 -8.2241478366646059e-01 -1.3385739322938588e+00
418 6.8029900550875433e-02 -9.8741610908732391e-01 7.1336157498406239e-01
382 -8.6295095545638356e-02 1.4486498063815987e+00 6.7157038298481453e-01
383 2.8782492484276250e+00 5.6801914389577324e-01 1.2606537149092031e-02
381 -3.6814616184760707e-01 -5.2369294551365275e-01 -1.1704313803994864e+00
419 -5.1610951316584297e-01 -2.0669268275335273e-01 4.8864950613358826e-01
420 2.8553684682640912e-01 7.8055859400689886e-01 3.5386504985233741e-01
441 -1.7666891402481704e+00 4.3194194466100722e-01 -4.3059792263919906e-02
440 1.6064580227269079e+00 7.2374547341474593e-01 -1.9166512693585261e-01
439 1.3344480647626313e+00 -1.1501194973970630e+00 -6.6239879549965475e-01
438 1.1006752715083441e+00 8.0211130378144591e-01 7.7977766665254022e-01
437 3.1429429556611715e-01 3.1071375353957820e-02 7.5209417396207817e-02
461 -1.4960550943364115e+00 -7.3944769731148829e-01 -1.0050342402699450e+00
460 -4.3871444192358910e-01 8.9972729023571252e-01 8.9388507428391817e-01
436 1.4140880487218088e-01 1.8190241316184055e+00 5.4712252059103905e-02
462 2.3699506755384983e-01 1.2141146011342749e+00 7.4508078049354720e-01
421 1.1437164902540273e-01 9.5102119957673039e-04 -7.1796179232260393e-01
442 9.8603903477485766e-04 -3.1362582065954064e-01 1.3553096965610922e-01
443 -3.3965438152579563e-01 -2.1618814693675448e-01 5.7846825895757556e-02
459 -6.7643819814816805e-03 -3.3265444781119891e-01 -9.9153608515432923e-01
458 -4.4055821283484259e-01 -2.4888329981050242e-01 1.7089474247340282e+00
435 -7.6502747797816562e-01 4.7478014957185392e-02 -1.3403705468721170e+00
434 1.0994076000943703e-01 -5.5435299734033683e-01 -1.3757769563393083e+00
463 -1.4645388246952040e+00 5.9735904734151757e-01 -7.7220212917917264e-01
422 6.5659013026953628e-01 1.0431494598767572e+00 4.5477632202065504e-01
423 -5.6674921413554691e-01 1.3775041696345125e-01 3.8959110094278770e-01
444 2.4690373340086045e+00 1.8590445252161797e-01 -3.5880968108537706e-02
445 7.9611090065675039e-01 1.3381333088561642e-01 1.4407427834349864e+00
457 -1.6128272104788277e-01 2.9747583156745006e-01 3.8199998987409700e-01
433 1.3214163410109934e+00 -4.5799902334696933e-02 1.1235900713728433e+00
464 8.2363705384504327e-01 -8.1283929751484385e-01 -2.1893878640682429e-01
465 1.7022847368913951e-01 -6.8714246823956937e-02 -4.8929936652748141e-02
466 -1.2435214408448969e+00 -9.7272407004905048e-01 5.3504906684363585e-01
424 6.4987527674216361e-01 6.3841961048063744e-01 3.1130561899791942e-01
446 -3.0288216488291303e-01 8.2848826813122411e-01 -1.4805374809134408e-02
447 1.4210956198047207e+00 -6.1612984943734306e-01 1.3022525850825117e+00
448 1.9046723836341755e+00 -6.0561762958669085e-01 3.2775135664567556e-01
449 -1.9083632979067264e+00 2.3728520238364992e-01 -7.5359473525896625e-01
451 -1.2964156226645247e+00 1.3799408284623766e+00 1.4845989558901844e+00
452 5.0617723760160227e-01 -7.4420644570229022e-01 -1.5534717990223303e+00
453 1.5638002291467559e-01 8.5772817633377407e-02 1.3957349917204822e+00
454 -8.9414752874284509e-01 2.1017702344197853e-01 -1.6259001283345684e+00
455 5.5890731383187031e-01 2.8890840588497019e-01 3.2470528406313892e-01
456 -1.1460434604282890e-01 6.7947441973834577e-01 1.7264941155132683e+00
432 -1.8162984719593947e-02 -3.8214195620331837e-01 -6.9355127785130710e-01
431 -6.9158924175953662e-01 -2.1540353121160444e-01 4.5941682379804161e-01
430 1.3666889784615044e+00 -1.4630241275544054e-01 8.9141030350044925e-01
429 4.8351028599339552e-01 -7.9400137484005387e-03 -4.6544371032218762e-01
467 -6.7976995872717627e-01 -1.2122277510288146e+00 -1.4672041172237733e+00
427 4.2052893583237871e-01 5.0896375961948315e-01 -8.4296334691308961e-01
428 -2.8617636472454971e-01 8.2585253141785819e-01 -2.3968130135827495e-01
426 4.5132859526723468e-01 -2.4983962562887801e-01 2.1624882500798759e-01
425 -5.3852451053431671e-02 -9.7897835325812288e-01 -1.0456399268841103e+00
450 1.0617679028858533e+00 -3.3511457664120592e-01 -1.6622206419818275e-01
468 -1.1043915026820819e+00 -1.0551819496978270e+00 -5.0143350873606418e-01
470 5.7502579216921557e-01 4.2024272090691384e-01 -1.4963390303935600e+00
469 -1.1574439286099216e+00 7.9025603736597649e-01 5.4098725627686450e-01
498 1.4512948501319969e-01 -2.5027846172309920e-01 2.5477565782199707e-01
499 2.9295991421030559e-01 1.6604004040412840e-01 3.3189973681923662e-01
471 -1.4510129614177573e-02 -4.6794679272792583e-01 -1.1787036704520493e+00
496 4.9476570158627697e-01 8.6358425761792601e-01 -9.8479756758341003e-02
497 -8.6744552019071541e-01 -6.6550004571153387e-01 3.1523016398778836e-01
500 2.9616865017442962e-01 1.7844866541924551e+00 -2.0973708738825008e+00
501 -4.7605610433216783e-01 9.0351534356854502e-02 1.2431184178062133e+00
472 -1.3333600968944876e+00 8.6773064965382840e-01 -7.0442428160050963e-01
474 -5.8230441543368539e-01 3.4222285442257783e-01 3.3400460843065372e-01
473 1.7127595328478471e+00 -2.9313173057617303e-01 3.4475350269535743e-01
495 -1.1833253244434487e+00 -1.5765579203404334e+00 9.0401028894998459e-01
502 4.6068510602584450e-01 -1.3526578048355073e+00 1.3197825630640809e+00
476 -7.7471995864545073e-01 2.4041956087205246e-02 4.7920117769594184e-01
475 -2.9758766851714491e-01 -2.4537222361570517e+00 -1.2653968471451202e+00
494 -1.0057947538796792e+00 -7.7218657190437934e-01 -7.4070141846692639e-02
493 5.7994186944784509e-01 9.6652081408242108e-01 4.2098155674364568e-01
503 -4.3598267194154228e-01 -8.6036110123870424e-01 -1.5461919447108232e+00
477 -8.8914950556518227e-02 -1.2583850050279806e+00 6.3689001701268649e-02
492 -2.9726828417283307e-01 -6.8752429844702434e-01 1.5795744685272978e-01
491 3.1428707415746115e-01 -2.3927968531077051e-02 4.0849402775850330e-01
504 -1.3625454144430080e-01 3.8050333811399739e-01 1.4231562492754304e-01
505 -1.6368123178073615e+00 -2.0583889402099493e+00 3.1483149772320640e-01
478 -5.1860529102175423e-01 -3.3245874718751356e-01 9.1522968002608818e-01
479 1.8515017661411495e+00 -8.4017566352091344e-02 8.9558877541128612e-01
490 -1.4655680396405806e+00 -1.4239019755520148e+00 -1.3045509419503385e+00
507 6.5240547135149451e-01 -9.8007551953640415e-01 1.4557950327636231e+00
489 3.6207788024966092e-01 -1.1785217852337340e+00 -1.0756895297885012e+00
506 -1.6225942822932118e-02 8.7851854475931657e-01 -1.6483659235166011e+00
480 6.4982443705118365e-01 5.7329278039682530e-01 -1.6057797844807278e-02
509 1.4922076504963788e-01 6.1742830605754928e-01 -1.5065784955022694e+00
508 -4.0008265368167034e-01 1.5223466241180358e-01 2.7496412444614132e-01
488 3.9935813985839203e-01 -1.1008994650368014e+00 5.1032169513801318e-01
487 -1.6835141096966130e-01 -1.6707904797126141e-01 -9.0267255178079542e-01
482 -5.5472519515771468e-01 1.5938144117648936e+00 1.4986620299280147e+00
481 -1.8380395856239438e+00 -1.7252752714575512e+00 -2.2170112783485099e-01
510 -4.5616829015783977e-01 5.7007714843149182e-01 -1.2750571262902597e+00
486 3.9919357171383080e-01 -3.9646844787244317e-01 -4.5448632766354968e-01
485 1.1065127857158279e+00 -1.5107729300063444e+00 1.5214302333807541e+00
484 -1.2712146333582022e+00 -5.4307325965432185e-01 -1.1360569120651369e+00
483 6.5676719034098746e-02 9.8874972459258736e-01 1.2557945323306829e+00
511 6.8695145308976024e-01 -1.8078877220341845e+00 3.2148264345124777e-01
512 -3.3354965412502303e-02 -5.6928375386598418e-01 -2.4970424324988957e-01
513 3.9828621088533772e-01 -1.2136428305885427e+00 1.2264559344680075e+00
514 9.0559449800202418e-01 3.2298265336592269e-01 1.3661818808604977e+00
515 -4.2629653029417242e-01 4.6404739140376539e-01 -3.6684351990819558e-01
516 2.8570070537922576e-01 -8.4405215913555942e-01 -5.1569930267636233e-01
517 1.2548350097431926e+00 -3.4284892954883583e-01 -3.8824221869643766e-01
518 -1.2856769179569940e+00 1.2828195938523907e+00 9.6520900132839843e-02
519 1.5436709811848098e-01 7.2977401102001516e-01 -3.7898979290601167e-02
520 -2.9281016896004225e-01 -1.0574803252755931e+00 3.5446163596190966e-01
521 1.8162286531398519e+00 1.8102479357799344e+00 -2.6159147702137187e-01
522 5.0378500585764513e-02 -9.5763742800335694e-01 5.0827548017852331e-01
523 4.2279461657801837e-01 9.9734381285092233e-01 -1.0909719352729563e+00
524 1.4434896338727268e+00 7.9267005255869560e-01 -1.0958809706142532e+00
525 3.7859509232375982e-01 3.6446494783278383e-01 -2.3550457450753043e-01
526 1.7031744301941257e-01 -6.1231055075166352e-01 4.6599314295097100e-01
527 9.4850987518641339e-01 -2.8447324073210833e-01 -5.4244128680300230e-01
528 3.1626645075296572e-01 -9.1073681554158870e-01 -4.8230832661020867e-01
529 5.5264284198332680e-01 2.1827533685421230e-02 5.0531876714112944e-01
530 9.6600420411786347e-01 4.1877548739823511e-01 1.9504132942958989e+00
531 -1.0442919500720753e+00 4.9168113379309764e-01 7.1410366031060513e-01
532 2.0130729783357834e-01 -2.4945280979066131e-01 3.9062653714638729e-01
534 1.4540390101957821e+00 9.0009365894667764e-02 -1.3803564787580946e+00
533 9.2423458478169473e-01 -1.3076538667028152e+00 -9.6998562697525992e-01
535 9.8455178925997100e-01 1.2971162136469279e+00 4.5244752934774773e-01
539 8.2124569856007790e-01 -1.7291905185635796e+00 -1.5482550483709587e+00
538 1.0253777148885501e+00 5.7682051551837532e-02 1.2302497519349362e+00
537 5.5822542247856410e-01 -3.8738891273796544e-01 1.2957492236342969e+00
536 -1.3131409480654663e+00 1.0382516065274932e+00 -1.3735851500943765e+00
540 -2.4031394512902038e-01 4.5104727735230887e-01 -1.8030692128422379e+00
541 7.4508477229650161e-01 7.2115765201801629e-01 -3.6032730692560877e-01
542 -3.7919596030932062e-01 4.2558613864087247e-01 1.2891419138411733e+00
543 3.8394567504979221e-01 2.5305322855158338e-02 -2.1395435446936656e-01
544 1.3422690208209973e+00 1.9374439669185601e+00 1.6309738581680002e+00
545 -2.2503345275532984e+00 -1.5130668056861407e-01 6.8536906205194770e-01
546 1.2376288715707155e+00 6.7012534841662763e-01 -1.5688252934713021e+00
548 -2.3662943528296021e-01 -3.9568239073098999e-01 -2.3021943119596076e+00
547 5.4104716902493288e-01 1.0202273839020060e+00 6.4953859818451942e-01
549 -1.2060412163506848e+00 -2.5936473344538098e+00 2.9434297912387657e-02
551 -6.0407011657400900e-01 5.1978063013354794e-02 -5.3719958546393809e-01
550 -1.7709167227246232e+00 -6.8208544937755844e-01 -8.1652424797816947e-01
552 -6.1710920916428846e-01 4.6412410480736283e-01 -5.0927533538089187e-01
553 2.1864118257473711e-01 -5.6454737041234893e-01 1.5212415083119557e+00
554 4.8522734794903472e-01 -1.9354319737373005e-03 -2.1765621508068858e-01
555 8.4869468669761905e-01 -3.6483805520593654e-01 4.3699503518612060e-01
556 8.9259471938709967e-01 1.0584858837389055e+00 4.7799302827167156e-02
557 -1.9506412138045881e-03 4.0788191982550770e-01 3.2426240167305029e+00
558 1.7239413658952424e-01 -3.1250564013241422e-01 1.6423808650798005e-01
559 9.0228332004133760e-01 -3.8019466819372383e-01 -2.7406702299502406e-01
561 -1.8112532780873105e+00 3.9083165743001619e-01 1.0592529734936178e+00
560 8.1237049247312765e-01 -1.2677189803241609e-01 1.5134804261794750e+00
562 7.9977123793088134e-01 2.2103547386445130e-01 6.8804480079979147e-01
563 4.0094399769176925e-01 5.8777818075924704e-01 3.2179971736308460e-01
564 7.5577606751511595e-01 2.1173793346307197e+00 6.2783707809858169e-01
582 -1.2477590828429308e-01 -8.2630065217689175e-01 -1.1312467891362836e+00
581 -2.3082480966453467e+00 -7.4791149850728533e-01 1.4285074580810768e+00
580 1.7210451654390485e-01 -4.6352412567097756e-01 -1.3104718643636379e+00
579 1.1054226109034619e+00 -7.9502689818440786e-01 -1.6155383591591679e+00
578 -3.8875781630309647e-01 -1.5115978502613026e+00 5.4564150243354828e-02
565 1.9175875582217821e+00 -8.5100798342727291e-01 1.8131652315136609e-01
566 1.7731468708614186e+00 3.3350228697585610e-01 2.5520925091493441e-02
586 4.0139759465697422e-01 6.4934770737542957e-01 7.7041148737487541e-01
584 -1.6869419999328011e-01 1.7656764267028728e+00 1.2762524125151105e+00
583 1.1789802375165777e+00 1.5145089406399789e-02 -1.2719387079023665e+00
577 1.6909490512793908e+00 -5.6443317564493523e-01 -5.7014327789181174e-01
576 5.3904088548057960e-01 3.6233562845176692e-01 -2.2859303497991473e-01
567 -1.1979325382181614e+00 -1.8794080659673165e-01 -7.7773072760255890e-01
568 9.6005950468412637e-01 1.1998287055334789e+00 1.3210482814156022e-01
569 6.5519123222520959e-01 1.1344819500711845e-01 -1.0086124685446299e-01
588 -7.3569574653022984e-01 3.5270301945304749e-01 -2.3785445986809467e-01
587 1.1993780869966353e+00 1.6904405663080349e+00 7.5523650253356744e-01
585 -5.8710488322910509e-02 3.9253956859340156e-01 -5.4957848489393846e-01
575 2.4161895905886130e-01 1.0284078042841434e+00 -2.0200431419175099e-02
574 1.7282639318052817e+00 -5.2623728297816985e-01 2.3203051645138633e+00
571 5.1973957894374589e-01 -1.0090696257490955e-02 -5.8033705658099566e-01
570 8.5403763616606065e-01 1.1020225521125757e+00 7.7914655626637008e-01
589 1.2021794413188067e+00 9.2679361179207576e-01 4.9108584680157763e-01
590 -5.7264963426902749e-01 5.3164912001134879e-01 -8.0578791611146561e-01
573 -2.2297786045813650e-01 2.7186544890701048e-01 -9.9261956211580438e-01
572 1.0840063084965608e+00 8.9695847995024100e-02 1.8411607446355347e+00
592 -5.3053323675897524e-01 -8.6909771807441638e-01 5.5906021571610920e-01
593 -5.8795336867127024e-01 -1.0658338051537957e+00 2.1574896386959819e-01
591 4.6019597780861199e-01 5.2643736876002589e-01 -1.8058155162704630e+00
594 6.8449449938717966e-01 -1.5735812175302408e-01 -3.4878862303984781e-01
595 -6.5957804291978706e-01 -6.0398488085136293e-01 2.4804546103992493e+00
596 8.1563917428074706e-01 5.5621543240305638e-01 -2.6640231520539626e-01
597 -1.0984571871428281e+00 -3.7881109321185069e-01 -5.2469109266265546e-01
598 6.7232726538408982e-01 9.7788303307786195e-01 -7.2379391476996846e-02
599 -5.1952812462776488e-01 -1.3073251833925918e+00 -1.8839425216785732e-01
600 -1.6110651152709687e-01 8.5879587184239867e-02 9.7978936538789785e-01
601 5.2493610903561183e-01 -1.2005647866502167e-01 -7.2612050139333939e-01
602 -7.4495931602329513e-01 -4.7447638379568730e-01 -9.2271023951628128e-01
603 1.2186062166465222e-01 -9.5493539095186053e-01 -3.4958186310639350e-01
604 1.6986152444320122e+00 3.3358766463890643e-01 -7.4718400434053378e-01
605 7.9584045350231325e-01 -4.3330344709644664e-01 8.7763549617180114e-01
606 3.6919295326410595e-01 -7.6869705380884046e-01 -6.3845882412974786e-01
607 -1.6004510380287145e+00 1.6217373069579328e+00 -6.2424157039103956e-01
608 1.7188461647625410e+00 2.8095370708983392e-01 1.2528049736095281e+00
609 -5.6107924374866880e-01 4.3724003623549285e-01 -3.4216594223263896e-03
610 -7.1180151889158338e-01 1.4664683579004802e+00 7.0561910114760684e-01
635 1.7914582276002602e+00 1.5103097759081185e+00 8.3106321485744664e-02
611 1.4292771300279965e+00 2.1319853095513879e+00 -6.1259747714165613e-01
612 9.2911898184611352e-01 -5.9942108930660176e-01 1.8800045494384425e+00
632 4.8081984311891091e-01 -7.7624309755786980e-01 5.0341626580985821e-01
633 6.7192829792583564e-01 -3.8601380248123390e-01 1.1252808273722724e-01
634 -2.0133913601876547e+00 -2.3566460142687022e+00 8.0466950440526608e-01
636 -2.6734097009310029e+00 5.9047909700655832e-01 1.5603498846420942e+00
637 1.3050106951800748e+00 -2.2136521038485819e+00 -2.2476734783945806e+00
638 1.2011788431634893e+00 3.8291443071459702e-01 2.9629000111581645e+00
613 -7.5788233180067854e-01 -7.2807426156647559e-01 1.5961354913359072e+00
630 -9.2295389146413276e-01 -1.1412108563816816e+00 2.6903559632710011e-01
631 1.1532124255059584e+00 1.8485027243287315e+00 -2.1739169101362150e+00
639 -5.9624012567417373e-01 -5.7138133404257874e-01 5.4245631427454655e-01
640 9.8108008607649000e-01 -1.6881869099099251e+00 -2.0188508401919547e-01
641 -4.6526694129374713e-01 1.0989488853564953e+00 4.7049931608470175e-01
664 -1.5324161707656265e+00 -6.0053387028550975e-01 5.6415510815538350e-01
663 7.8652397949260788e-01 -4.8137795484883639e-01 -4.9924843438017213e-01
662 1.5283231341012848e+00 -1.6750869196648581e+00 8.8651255749332980e-01
661 1.6352020453641696e+00 8.1187617131309042e-01 -9.3271424843631390e-01
655 -9.5853643065343808e-01 -1.1306775084068532e+00 7.2248733035173962e-01
660 2.5072336027999842e-01 6.3456515518990064e-03 -2.1474858205111980e-01
659 3.3740918641276169e-01 -4.4413443507938472e-01 9.5493763317511338e-01
658 2.5160723866964568e-01 2.9537819808051519e-01 1.0344974236766331e+00
657 -8.4485973858609165e-01 -5.9902564346295872e-01 9.1765964902785613e-01
656 -5.0330431799291120e-01 -5.0128443547272850e-01 -1.0299205410409857e+00
614 -1.0960363904109132e+00 -6.6440437582007017e-01 1.7478635115671440e-01
627 -8.4674251837113179e-01 1.5744179277990062e+00 -1.4239118377227680e+00
628 -2.8644734074764955e-01 -1.6637498407761517e+00 1.0609976932346210e+00
629 -9.8364469746554439e-01 6.9808997537261619e-01 2.2711014039958538e-01
642 7.0402025683803798e-03 1.0167541251459487e+00 -6.8009230518309149e-02
654 3.6978725626203063e-01 -9.7961410527564718e-01 1.1293805307890921e-01
653 -8.3417294694828115e-02 4.4068476711583893e-01 1.7590371698866700e-01
652 7.3432604206303875e-01 -1.3755083917244690e+00 7.3251563461121172e-01
665 -7.7556100580439291e-01 2.9554654038064521e-01 -9.7255928405905701e-01
666 -2.5514980087429961e-01 -3.0349009801853316e-01 -1.6406890488182166e-01
615 2.3573686658696111e+00 -4.0409642258935979e-02 -7.5857431585117152e-01
616 -1.1322102996711565e+00 -2.8789198885254580e-02 1.7453295562589724e-01
625 -4.8654542949944779e-01 -2.4790095327434147e+00 -2.7413361127890862e-01
626 -5.2406427636000064e-01 1.5183930263035825e+00 -2.3867254695695705e+00
643 -1.9518723260182556e+00 8.6444798903249886e-01 8.8203760471193504e-01
651 2.1260196649563112e-01 1.0700137857878558e+00 -7.2676604209901574e-01
650 2.0314384968558832e+00 4.7805201253286211e-01 6.7662613444788278e-01
649 1.6090446784022341e-02 -2.0172140147943156e+00 -6.1799585778656088e-03
645 -1.1198206660350496e+00 -1.3468615419906187e+00 -6.3033458324128167e-01
644 -1.3178412939068949e+00 5.6314616261491507e-02 -1.7690515345005584e+00
667 -1.8704659497033735e-01 1.6181836274396394e-01 -9.1373373322323082e-01
617 5.6947911883553848e-01 -8.8933974210370936e-01 -1.3454392486880654e-01
618 -9.7381569099014048e-02 -5.6790608925247832e-01 6.2360465022177014e-01
619 2.5250794571244346e+00 -1.4535056080923985e+00 -3.3524244873321041e-01
620 6.2528164716642054e-01 2.9110760527864576e-01 -6.5562903050883226e-01
621 1.9434626604103853e+00 2.4255490588432796e-01 1.9121295651446004e+00
622 1.6941062105945450e+00 5.2462438110011660e-02 3.3592592888726219e-01
623 9.2648975516607235e-01 1.6895268817924972e-01 3.4004645006321410e-01
624 1.7364581261572625e+00 -5.1874335641420000e-01 3.5994404489327242e-01
668 -2.3913109749240330e-01 -6.6480814172497760e-01 1.7318734230218438e-01
669 8.2249920558395206e-01 1.3725958525255417e+00 -2.2861065207698172e+00
648 2.2507539366695373e-01 -1.1939581875829516e-01 1.0769030438280991e+00
647 -1.1808296314558349e+00 -1.3451035281485615e+00 1.4389584154450139e+00
646 -6.9887722826319487e-01 6.1150519470811060e-01 -1.2571406108579755e+00
670 -5.2384658331615652e-03 -1.7385249512711842e+00 8.7353498636387572e-01
671 1.4402475475080645e+00 3.1402267233838510e-01 1.9481689083935922e+00
672 -5.6628442534852774e-01 9.4688581800738236e-01 -1.1098242829634946e+00
673 -1.2007003385376098e+00 1.4667059881598787e+00 -2.6262198019262828e-01
674 3.7784573905944208e-01 -1.6393192788408890e+00 9.2474104587586536e-02
675 2.5998177642132511e-02 7.3330128567544439e-01 2.8046058504570553e-01
676 1.3131073867050915e+00 6.5844208424192829e-01 4.6505601938997332e-01
677 -2.5960844250809340e-01 2.6915719114979320e-01 -9.5328374489063811e-02
679 -9.0830243713620651e-01 -2.0209875345380157e-01 9.2618962240983338e-01
678 -1.3437839927602535e-01 4.1803657064531996e-01 -6.9232017410878310e-02
680 -2.9335805369678775e-01 -2.8863390622586133e-01 2.7139934764695339e-02
681 1.4321612197345326e-01 6.4542612556175849e-01 2.0695828812550849e+00
682 -7.0768167227700751e-01 1.1460107426730770e+00 -7.5346499348150076e-01
683 5.5861638400558222e-01 -4.8019180345487897e-02 -1.1272036641147436e+00
684 -1.1178541361529959e-02 3.7580292767703710e-01 1.0220738003833767e+00
685 1.3166827244817549e+00 -1.1371510952120094e+00 2.9544877451588092e-01
686 -1.7831644655162071e-02 -4.0089709150111941e-01 1.2772868472568510e-01
687 -1.3832598280241415e+00 -1.5738267801136845e+00 3.3541544995729844e-01
688 1.3573609569063829e+00 1.3208360159470742e-01 9.4651118295897319e-01
689 2.7633194295125590e-02 4.9329979620033104e-01 1.0208863267532528e-01
690 -4.6362303755180906e-01 -6.1688137810002552e-01 -3.4337611921714656e-01
726 -1.9709436409858909e+00 -7.2906190532938608e-01 2.3483851229345962e-01
727 8.1903708149183596e-01 -6.8474908197225376e-03 -6.5580201808127314e-01
725 -9.8426954361463448e-01 -1.2440270120075247e+00 1.1614063779564960e+00
691 7.2571659117615761e-01 3.0670506295374816e-01 -1.0138305921801334e+00
732 1.5832852833182975e-01 -3.0655642003061578e-01 -1.9012280246389652e+00
731 4.1637603049353372e-01 1.9517153969802487e-01 -3.6746197041037171e-01
729 -2.1634603523901550e+00 1.3930595669771924e+00 -1.2150005320399209e+00
730 -1.5748921168376002e+00 -1.9145230777489841e-01 -1.6888660648001410e+00
728 1.3443404535171306e+00 -9.1422311684955038e-01 6.7729553432616119e-01
724 -1.7729198913364075e+00 6.7558291042889862e-01 9.8616588735809052e-01
723 1.8062098197860679e+00 9.5156461036055240e-01 -2.2421617974562222e-01
692 7.3683373238618233e-02 5.9268844179829505e-01 5.9516489103937670e-02
693 1.4301285791121920e+00 -8.8854272369275455e-01 -1.0450438078869224e+00
735 4.1394928625900207e-01 8.2258098930391377e-02 -1.6533246224234044e+00
734 -4.3184944182755725e-01 -1.7339224234486743e+00 -5.3837928464205098e-01
733 1.6251467340290737e+00 -2.5922469992099928e-01 -9.2561349712918828e-01
722 1.6631636365513700e-01 -9.3880992380637421e-02 6.4581326285345375e-01
695 -1.0541016026228356e+00 7.8711037689068730e-01 9.5158024477254644e-01
694 2.3923361639442742e-01 4.1118732480245279e-02 -7.4966194603656899e-01
737 -1.5555707740026508e+00 -3.7524897027707010e-01 9.4037522934749884e-01
736 8.9266927122372497e-02 -3.9173134802076870e-01 -7.9417954620246756e-01
720 1.2568064029246759e-01 -3.4495892566224229e-01 -7.2159532813599880e-02
721 -9.5007799591594710e-01 -1.6345989493814606e-02 5.4290437142388848e-01
697 -1.7979407587461032e+00 6.8596970136707325e-01 -1.2045636116607918e+00
696 7.4484704953249903e-01 1.0053309495371354e+00 4.5533259107258800e-01
738 1.2246830969088505e+00 -2.1960295098098879e+00 -4.3839735601233842e-01
719 1.1175373849689698e+00 -8.4249239292338951e-01 -9.9431470714041792e-01
699 1.1203122161084642e+00 3.3101481739825009e-02 -9.4514235701039773e-01
700 9.0977178037182449e-01 2.4126140861167729e+00 5.5533746951059677e-02
698 1.4584830905044788e-01 -3.6596839340546561e-01 -4.9564887056714552e-01
740 -1.8459703792708329e+00 6.3836834766270134e-01 -1.1893161855622845e+00
739 2.9554267369824547e+00 1.1745808290345754e+00 -9.6190169149165095e-01
717 -8.2611107294833397e-01 6.9031313924710569e-02 5.8987097611394013e-01
718 -1.6897523039949000e-01 1.1354477684440116e+00 5.7683805701234803e-01
701 5.2841589269570743e-01 -4.8272333347604401e-01 4.6071923202777743e-01
741 -4.7810184051712064e-02 1.8324150319447146e+00 -9.0705201636567756e-01
715 -4.8307024641098756e-01 1.4973180293307313e+00 3.9354544431304395e-01
716 -1.9918434408690484e+00 -9.0071542538683991e-02 2.0844591895473041e-01
702 -1.5704081806647222e-01 -6.2966449308965211e-01 -1.2973902014385204e+00
703 -8.6743285742355103e-01 2.0380810819744094e-01 -1.6882143193088942e-01
742 8.3312519049858869e-01 -4.7932553482289642e-01 7.6097909104756639e-02
743 -1.5583845658975226e-01 -4.3026552410041963e-01 -1.0067782923471065e+00
713 -4.7217244756379995e-01 1.8322165095781817e+00 3.7450986176684675e-01
714 -1.1179476150212200e+00 -4.2081459863849563e-01 8.4390401568681972e-01
704 7.6054881596892843e-01 1.8635500116725465e-01 4.1771275233963062e-01
706 -3.4324948699589852e-01 -1.4488990519773084e+00 -7.7800289571409187e-01
705 -1.0804138619492960e+00 -3.4883148677789766e-01 4.4821505171735976e-01
707 -7.0891436669323915e-01 4.1902348775346748e-01 -1.4861572381870852e-01
708 -1.3232111055693196e-01 1.2252581086229055e+00 -1.0029983294319085e+00
744 -1.6430480596829715e-02 1.4448627799734415e+00 9.2298363621050886e-02
745 5.1861736071392661e-01 -7.5813363966082559e-01 8.1490142074015670e-01
709 -1.1083190590225820e+00 -9.4585901061583089e-01 -3.4637774444776442e-01
710 6.8800834408874090e-01 -5.2793448834900913e-01 -4.9121252819334954e-01
711 1.6564927395499216e+00 -1.0401298594357509e+00 -6.3001065007495560e-01
712 -1.5096144281140418e+00 -1.5786376539706581e+00 -6.9424953535250311e-01
746 1.1608502130614309e+00 5.2673966970674380e-01 -1.7403436144874165e+00
747 3.8802467173558314e-01 -1.4382430257398195e+00 2.2619677482232189e-01
748 -2.8858873502782273e-01 7.1364081890843326e-02 6.7209368959901761e-02
749 -8.6930999768801387e-01 -5.3087769954237873e-01 1.8028953162884054e-01
750 -2.1004480464619629e-01 2.8381233706318099e-01 1.9666945098735040e+00
751 2.6875291248407440e-01 5.3936981595247602e-01 -1.0929610614780927e+00
752 -1.2550648955700044e-01 3.0030866441305820e-01 5.6185645708080423e-01
753 1.2076966393119128e+00 1.7585294800103308e-02 2.8338687096248427e-01
804 8.0402651288499910e-03 -4.9860431181347237e-01 -8.7083868895018957e-01
805 -4.4974932399004053e-01 -2.6293234038999397e-01 -1.9307507905361225e+00
806 -1.8033691074948901e+00 1.5947699001559679e-01 3.3911417208253608e-02
807 -2.5411131685588412e-01 -5.2889879007950147e-01 -6.3343087533737563e-01
808 -5.6782306572109653e-01 -2.7392703865215412e-01 -7.0532578291198222e-01
809 -7.7714435017932304e-01 2.4672176390725764e-01 6.2792580518907470e-01
815 8.0822239022693798e-01 -6.9822692517316953e-01 5.4841925983695056e-02
814 -2.8654344966029530e+00 1.2365285879700543e+00 3.7791115643386670e-02
812 -1.1936172558322704e+00 -1.2508048410534205e+00 -7.9355740058356794e-01
813 2.6963901535757434e-01 -1.7041260367654543e-01 -3.6161177296021529e-01
811 -1.3684779704038670e+00 -7.0731381833749563e-01 -3.8172083656700900e-01
810 -1.4414172582029505e-01 -2.0446014070620819e+00 2.0601575024595551e+00
816 1.0561446694306627e+00 -1.2922188269311814e+00 1.2211933327814086e+00
755 9.4951197936548670e-01 -3.4055944338611793e-01 -1.5562179231356490e+00
754 1.0284813133957325e+00 -1.1378648057020497e+00 1.2883042839259382e-01
802 -1.6062017839142875e-01 -3.3750702973785934e-02 -2.0825790766713745e-02
803 1.3200240531318321e+00 -1.4203604527530118e+00 -9.2396260360188803e-02
818 -1.3882455334854411e+00 1.8177144796672901e-01 -2.4987843494634621e-03
817 -5.3690609396882993e-01 -3.7674090313945163e-01 -2.1127716418946427e-01
756 -1.2617814206326281e+00 -5.6334890251980574e-01 -2.5848898358569459e+00
801 -2.0472914201220832e-01 3.3903826175227969e-01 9.7644129351890915e-02
833 -1.7497823072004395e-01 -8.3070069413039882e-01 -3.7765571185036267e-01
831 5.4659273994721980e-01 8.4936713857978030e-01 -8.1403767834804241e-01
832 2.1658702295514640e+00 -2.0385213294481273e+00 3.3160550960059698e+00
830 7.3794571017935484e-01 -1.6579402818568250e+00 8.3326943671044984e-01
829 -6.6453195145839361e-01 9.2343761117610135e-01 -6.7793706610209870e-01
820 -1.5424497251461505e-01 4.2844805258332580e-01 -1.6682279496330610e+00
819 1.1920627489469406e+00 -8.6662442583433863e-01 -1.4726745683951498e-01
757 -1.3936724473856343e-01 7.7308774712640793e-01 -4.7303535693551430e-01
758 -8.7057407815074872e-01 1.7444858089178570e+00 -9.8121251897655726e-01
799 -9.9463825652646465e-01 -1.6154361449919583e+00 8.5566490239642279e-01
800 -3.7238720207297044e-01 -1.1277537919601166e+00 -3.2509047068097074e-01
836 -3.4257563980353417e-01 4.0864241618296931e-01 4.0362549801330799e-01
837 6.1574582977118619e-01 1.8709152102126312e+00 2.7814008749123498e-01
835 1.1567744396272543e+00 1.9166420262275787e+00 7.5387669241752253e-01
834 4.0975748926275740e-01 1.3479873548927590e+00 -1.4956238711802586e-01
828 -1.1619824564282530e-01 -3.5139911690351300e-02 4.6856658720144984e-01
827 -1.5466011465096324e-01 -7.9202717116399646e-01 3.5444589334939952e-01
822 4.9711126862617100e-01 -3.6453611788165330e+00 -6.2261265197637417e-01
821 -9.6828860615066914e-01 6.5209201939104311e-01 -2.2247114767464575e+00
760 -5.2340980453382913e-01 -2.9739029605438161e-01 -4.2070667792128075e-01
759 -5.2412587849497427e-01 -3.9325057517003648e-01 -1.4748568811806897e+00
796 5.8522729806283269e-01 1.0130274388669476e+00 1.2552872858959097e+00
797 1.1383181974390382e+00 -5.5701879677215749e-01 1.3945377078415824e+00
798 -4.5368791467163788e-01 6.7399942695137460e-01 -7.8108845392109438e-01
838 -4.5853846014672484e-01 4.1462696110942016e-01 -3.9194049188153979e-01
839 5.6677549092940582e-01 -4.3506380311224407e-01 6.9200462774212435e-01
826 9.0519008374206553e-02 -6.0039982151749716e-01 -1.8338615194937441e-01
825 1.1084980532900117e+00 7.2537389680252251e-03 5.5472909519344571e-01
824 -1.6457126574400884e+00 9.2474379742399151e-02 1.0549806545941460e+00
823 -1.6757350368647000e-01 -6.7448548893904703e-01 -2.5652854589589108e-01
762 -1.5394211732563667e-03 -9.4323440085767762e-01 -3.5621244031365201e-01
761 7.0217631594101965e-02 -4.3083851080320412e-01 3.1195252355087986e+00
791 1.8408491531022058e+00 -1.1648983699131319e+00 -4.5014202391406666e-01
793 3.8945777344671473e-01 -5.5320744950794176e-01 -1.0733063686350872e+00
792 7.0030382332363894e-01 -1.7375121910443267e+00 -1.3850954024245761e+00
794 8.2649254428632490e-01 1.1979908134401138e+00 1.4082926942863636e+00
795 -5.9399120445629672e-02 -1.2678138545670523e+00 2.0275050736549387e+00
840 9.9742422757594928e-01 5.1388355506090089e-01 1.8474484508439210e-01
764 7.6394291563919414e-01 -9.8694322455101835e-01 -3.2362663490369142e-01
763 -2.4799866007532492e-01 1.7048677207403173e+00 1.1146974813318873e+00
787 7.5905669045492463e-01 -2.6898622265956262e-01 -2.3247892515159485e-01
790 5.1054644699873397e-01 1.9595314069439446e-01 2.7379426694217679e-01
788 -7.5998286583644858e-01 1.0991443671996178e-01 -1.4835214423024112e-01
789 -1.2939061756320733e-01 3.8964096087924549e-01 -2.1689527251812851e-01
841 -1.8862124373558549e+00 1.7310735043219443e+00 3.4459826364841950e-01
766 -1.4784401956510893e+00 -1.0593381153639527e+00 4.5047391420429617e-01
765 1.3786342850437977e-01 -9.5671238261051927e-01 1.4059016403585829e+00
785 2.2132447567540323e+00 3.0898980155023570e-01 1.0512759640995875e+00
786 -6.0690469423273397e-01 1.6642740171706834e+00 -1.8713402302125676e-01
842 6.2604381456243599e-02 6.7974511086097511e-01 8.8709973619821103e-01
843 4.2403089060803645e-02 -5.5626601759313266e-01 1.4420710058256085e+00
767 -2.3585779844948971e+00 8.0544278044152806e-01 -4.9492964413954593e-01
768 2.6583241719014306e-01 2.9863823772223699e-02 -1.7886122304767467e+00
769 3.2211549197343903e-01 1.2234260742008796e+00 -4.3522584996335895e-01
770 -9.5734991554614413e-01 -5.0042757827262996e-01 -3.6585869344710015e-01
771 -1.4643125402836166e+00 -1.4450415998632113e+00 -4.1401632394952276e-01
772 -1.7661995792303425e-01 5.2409319071340599e-01 4.0729964686924769e-01
773 -1.5067553333566717e+00 -2.3948102510009206e-01 2.3261903938171722e+00
774 3.6875270039338282e-01 -6.6153017283449422e-01 -2.8832582313174621e-01
784 -1.2749550621181003e+00 -1.1944253732814556e+00 -1.0146951546321032e+00
844 6.4185532480115193e-01 -1.9237743282926828e-01 1.2840816557270363e+00
775 -4.6954623078254104e-01 -4.7200931362898496e-01 5.5609703558499879e-01
783 4.5427368221859160e-01 -1.6552684111231841e+00 -1.2773203610402293e+00
776 -4.0478820873769261e-01 -1.8487319601645507e+00 -1.9889164902704706e+00
777 -1.6693197664216051e+00 -3.4658170024987350e-01 -4.1363294563217085e-01
778 -1.8731420507814331e-01 6.8264039040396751e-01 -4.9094139903375267e-01
779 -1.2517562049855848e+00 -1.0670357945725863e+00 4.9602898901109538e-01
781 4.7560093717536955e-01 -8.5006983506131462e-01 9.7816779634465234e-01
780 -6.8758498975879156e-02 1.7320226681915610e-01 -5.7840969070077908e-02
782 -1.4105094420816613e+00 9.3389402901866037e-01 8.6265464606807019e-01
845 3.8035979535469100e-01 -1.5519322944116942e-01 -7.9197067995636794e-01
854 -1.4050893909585005e+00 1.4250690354720813e-01 -3.4296833712576030e-01
848 7.1614761454205356e-01 -3.6769940447230454e-01 -5.6609310315250772e-01
849 -2.5493947679886664e-01 -7.8579231601507615e-01 2.0372850439588208e-01
853 2.0729210447492732e+00 5.0457097788722560e-01 7.7587915419051778e-01
855 1.6088344698955521e+00 8.6588163528551454e-01 4.7349952450036814e-01
856 -1.6644828852492499e+00 1.8411100046559856e+00 -8.0773669380548818e-01
857 7.1099465625738834e-01 -3.1224721766268815e-01 2.1186004345195486e-01
846 9.5461549421194181e-01 1.0904917408929360e+00 9.2651177894066361e-01
847 1.1974944800804508e+00 -4.9767379135690110e-01 5.7169133471188249e-01
881 -1.1868996535231484e+00 5.2021364221090916e-01 6.5732206653261438e-01
880 1.1138519850952633e-01 -2.1215556300306598e-01 2.3346335998887371e+00
850 1.0556917094311726e+00 1.5888682247783483e+00 -1.3552617374810827e-01
851 1.5027861581189648e+00 7.1194390038757757e-02 -5.1828042009429565e-01
852 -1.0745507193040273e+00 1.3340899103261201e+00 5.8563296937577358e-01
858 -1.9903190795601905e-01 2.7127975690379853e+00 1.4910318969679284e+00
859 -3.0455222206407884e-01 -7.5306525948524550e-01 -2.3253368660847720e-01
860 -1.3451503126929505e+00 -3.3855414737146439e-01 -7.4887255378020701e-01
861 -1.4739502605117821e-01 2.8612936834868749e-02 3.3412293927581749e-01
883 5.2432026967778878e-01 8.1574160861307332e-01 -1.0110419269108006e-01
882 -2.9023976264347762e-01 9.3781327600414396e-02 -7.3799699643882710e-01
879 7.0279039309976099e-01 -4.9653894801931681e-01 1.9752911473289420e-01
878 -1.4705104651526854e-01 1.9552001188343204e-01 1.0879731448614263e-01
877 9.6076647059522369e-01 -9.0832979688012949e-01 -1.6319352574845847e-01
876 -1.0651723114027374e+00 1.8584818690600409e+00 1.7747413867450708e+00
863 -5.6137316746761379e-01 -1.1364468785517705e+00 7.3604753883599405e-01
862 -7.4628914754938935e-02 -1.1094633732796619e+00 7.1095924344053008e-01
865 -6.2319737783369222e-01 -4.7084015845428512e-01 -1.3034723873855855e-01
864 -1.1780443899154527e+00 1.4435813652665528e+00 3.6357288382897779e-01
866 1.3916081738989500e-01 -1.3904468474604388e+00 -4.7117046035362914e-01
884 5.7939668294350999e-01 4.3081789266127857e-01 1.4337788949724706e-01
875 9.1197098209835925e-01 3.2639657520861370e-02 -5.3796884104484105e-02
874 9.9469892846514596e-01 -7.4297392681035623e-01 7.7735740853997215e-01
873 -1.2894199670715609e+00 -7.4992816453725930e-01 -2.4856270308343826e+00
868 -1.1586146818171450e-01 1.4549008630890473e-01 -7.2067531592873435e-01
867 7.0025288623198301e-01 -1.1464506234049323e+00 5.9984611957444900e-01
885 7.3918624497032914e-01 2.8202823039569413e-01 2.1648090616648563e+00
886 -1.4074413386583856e-02 -2.3886301121000186e+00 6.9806574529610355e-01
872 4.1954667200813545e-01 1.8755724615179377e+00 8.9838641034822220e-01
871 6.8808834791775775e-01 1.2333969432854091e+00 2.7397951276882837e-01
870 7.8195874464742332e-01 1.1574339485942726e+00 -2.8611661776663377e-01
869 1.1782788395840188e-01 -5.3759157619412323e-01 4.2497433052255407e-01
919 -1.3199852947608661e+00 3.9328256838754283e-01 -1.3169735539121619e+00
887 6.4549662673052399e-05 -4.2432090874652767e-01 -1.0547325821133970e+00
922 1.4146033420155901e+00 7.4368877700530867e-01 5.8739357127800584e-01
921 -7.6295514940826259e-01 -2.4418723412615764e+00 3.7883214022672562e-01
920 2.6033548552645613e-01 9.3896677962668662e-01 -5.3144334482215561e-01
918 -9.7708584719298253e-01 2.1259351851182817e+00 7.0302584057251594e-01
917 -4.0647828179767520e-01 6.5159555033838717e-02 -1.4371211777474362e+00
888 -1.5115280687085866e+00 -5.4571011628949499e-02 6.5869363244926082e-01
925 4.1679206613605696e-01 2.8309000870270290e-01 -1.1796442781229175e+00
924 4.8147199814284247e-01 1.2597724106419642e-01 1.4483422980063105e+00
923 1.5746361102331885e-01 2.0856616221456274e+00 -3.6936458705849046e-01
915 -1.6947923390633644e+00 -1.1601903957026782e+00 9.1710667091820153e-01
916 -3.0062456050776748e-01 1.3561127452601465e+00 9.1963965310244289e-01
889 2.6130030145667926e-01 1.4763204452157936e+00 1.1807859150205162e+00
890 -5.0035267567221375e-01 9.1196972575977164e-01 2.0052030827598105e-01
926 -1.4215430387533379e+00 2.5486914007971158e+00 -3.1912573868226124e-01
913 -7.3562869985300572e-01 1.4080647016089258e+00 2.6072214431488376e+00
914 1.7042582651470881e+00 5.6675687222292981e-01 -2.9219763728578491e-01
891 -1.0808041143332521e+00 1.1169667615541474e+00 -4.5034407590135472e-01
892 -2.3374934326619975e-01 -5.5914683252957831e-01 1.7940948676974502e+00
927 -1.2202582274834570e+00 2.2823483630454283e-01 1.1499278255845219e-01
912 2.8750173747488122e-01 -1.9957207805019421e+00 5.4691422354403052e-01
893 -1.3296295673849674e+00 2.6180266330383556e-01 2.1210982905632228e-01
894 -4.5589870498592083e-01 -1.9566559558600001e+00 1.9684387449031797e+00
895 3.3152424971670036e-02 -1.7095962304166734e+00 -4.7545209236237618e-01
928 2.2542918887748602e+00 1.7558813529926067e+00 8.6178287440021942e-02
929 -1.0185078495502535e+00 -1.0675351871684080e+00 3.2022141354345318e-01
911 1.4331809121641566e+00 -9.1652214806341537e-01 7.8811934678589135e-01
910 -1.6663715333259437e+00 -1.3058421258630322e+00 -1.6980046561420652e+00
896 -1.0900325930826416e+00 8.9511017497534384e-01 -1.0322336935733127e+00
897 -6.5886397698338117e-01 7.1270644967794694e-01 9.9206439535821922e-01
898 -9.5657767114762748e-01 -1.7570244529913372e+00 -2.7929797596194794e-01
899 -5.1167382778235915e-01 -2.9136062777430727e-01 4.1109138510526511e-01
900 -1.4300393968470870e+00 -2.3377029002545857e+00 1.0726531607330991e+00
901 6.8132185394699096e-01 -5.8645832089846639e-01 4.5143608895665560e-01
902 -1.4811543770945290e+00 -9.6092243248999598e-01 -1.5232798525577007e-01
930 8.3886576691644210e-01 -1.6776509041708548e-01 2.3557895204892479e-01
903 -9.1109469783560382e-02 3.7425110863428329e-01 3.7658621159647115e-01
904 -6.3738697048552329e-01 1.5569886730600940e-01 -2.5971740910006941e-01
908 -4.4916887637762698e-01 -7.7801831876963856e-01 1.7687772071511759e-02
909 1.5115623065683788e+00 2.0911826736751424e-01 9.0396929043930363e-01
931 -7.3745373612402776e-01 3.8302803019193687e-01 -5.8497651281867256e-02
905 2.1360330456476868e+00 -5.5432586728642685e-01 2.0459554144199266e+00
906 -1.8070687950800193e+00 9.2879408771353011e-01 -4.8910608809225048e-01
907 3.0643785694990233e-01 1.7619239767864733e-01 -2.7821070798954561e-01
932 1.7740853666906047e+00 -2.7559603903028003e+00 -1.7785801325512347e+00
933 -1.1521610017367818e+00 -2.7843410741266716e-01 8.8094245129954896e-03
936 -2.7753402585430698e-01 6.2643197763666869e-01 1.3195405565086062e+00
934 -1.5548820360449771e+00 1.6916950454845980e+00 8.7925353500910505e-02
935 4.3063356806190184e-01 8.7248162979264543e-01 1.7301288353570177e-01
938 2.7659239304638439e-01 -1.4018242573043208e-01 -7.2426920117385063e-01
937 -3.5607440705110982e-01 -1.1287172776070786e+00 -5.6854475052240977e-02
974 1.5206573217598457e-01 -7.6475674546229966e-01 5.4764226546010031e-01
981 1.0621985443037307e+00 -1.0692557568960424e+00 -7.0000522211597671e-01
976 -1.9992247042548761e+00 6.7392322499079194e-01 5.2778204674619611e-01
975 -7.2472425763324322e-01 -1.2426474439549606e+00 1.0605196954706717e+00
980 -1.3729843719329695e+00 -1.2949304871088598e+00 -2.0191802308876601e+00
979 1.2947207798171023e+00 -1.7309015489871311e+00 -8.7493844938002618e-01
978 -1.2284500050036516e-01 -8.1642880042582577e-02 5.3298033925683275e-01
977 -5.8276140201109961e-01 -2.6653409717544596e-02 -1.8053080308221414e+00
969 4.7432114207409798e-01 -1.3986885549609072e+00 -1.5830213781306510e+00
968 3.5699985734928386e-01 2.9040543564450455e-01 -2.0674680683204416e-01
967 -4.6812295942712362e-01 -9.6223333169019454e-01 4.1188882729306092e-01
966 -9.6161457846805376e-01 -1.3859334785431678e+00 -1.5081300765874350e+00
945 7.9748673539884940e-01 2.5300202998210936e-01 -7.1127569696550819e-01
944 -2.1266074911716073e+00 -1.2643568513672330e+00 -2.1489376384069785e+00
941 8.9970773243287261e-01 -3.3925644419673540e-01 -6.2948417551030322e-01
942 -5.0570806095290499e-01 7.9985996668895631e-01 -4.4739563359081824e-01
943 -4.8355031181220925e-01 -2.1643972421392743e-01 1.1158823300577190e+00
939 1.2380364847785794e+00 4.2080639658151381e-01 7.1908712994706692e-01
940 1.2618681065946604e+00 -2.3122519694654486e-01 1.3780460205060989e+00
983 -1.3383089883094246e-01 -1.1669237205636043e-01 -1.4022395503984884e+00
973 3.7327137550295299e-02 9.5354951943249766e-01 -1.7157876888902701e+00
982 -1.0563845337151665e+00 -6.2565840931122485e-01 -1.3119276199674046e+00
972 -6.8119368730388552e-01 -1.3111104287132913e+00 4.8554333301672509e-01
971 1.3230781039561608e+00 8.4808333171133521e-01 -1.5646448652747440e+00
970 -2.0648343515270740e+00 -3.6265670355898999e-01 1.1929112478454600e+00
965 7.1612988039642023e-01 -1.3337008284938747e-02 -2.1028779004195313e+00
947 -5.9751135602209082e-01 -1.0072973328087218e+00 2.7438025144539452e-01
946 1.2689534772849875e+00 2.1545131770727449e-01 9.0829857053540142e-01
985 1.5504625288383374e+00 -1.3039773000935323e-01 -9.3299268990610654e-02
984 -4.4004579840105679e-01 9.6178805657653577e-01 7.2738584794395422e-01
963 1.0302395020514268e+00 -7.9943367502025098e-01 -1.4439063301130675e+00
964 -3.2679190576125433e-01 -6.9289339829614827e-02 1.1799484836118557e-01
948 1.3599966580974494e+00 2.0252447679076164e+00 1.6908403666039398e+00
949 8.6472920720906932e-01 4.8038958672014226e-01 -4.0886767241808963e-01
956 -9.3017775366227751e-01 -8.7613638333188992e-01 -3.6838066258459357e-01
986 -1.0944303274730922e+00 -4.3846545269148851e-01 -2.0148589768663078e-01
987 -4.1618710738156872e-01 2.5390288132639327e-02 1.6839581642030412e+00
957 -7.3089906732589061e-01 -5.0348174510561039e-01 1.6630154604467426e-01
958 -3.4049193029460378e-01 8.5190865969412732e-01 -3.1434534631675404e-01
959 1.0124113018168006e+00 -2.2094424180192060e+00 1.3102987464168958e+00
960 1.6038045632346210e-01 3.2437898460369741e-01 8.1284436720468617e-03
961 1.0790531083040848e-01 7.7956512597388583e-01 2.2097821308898336e-01
962 -1.0101896546543714e+00 -1.3190394599499602e-01 6.1833746990980576e-01
950 -1.3844633166746552e+00 -8.9532432389178518e-02 2.2281279810153232e-01
951 1.6742470254085982e+00 -1.2492548222840194e-01 -1.7889247619524893e+00
952 1.4611362505363279e+00 7.0797822664102616e-01 5.1053345490466029e-01
953 -1.6112760709179796e+00 -6.7212457445106533e-01 3.2115665498040196e+00
954 -6.5373961665103497e-01 -1.4408906808764821e-01 4.0227289269780597e-01
955 -9.3686305420989324e-01 6.6895850903929099e-01 5.4920791632268262e-01
988 5.5039548521996973e-01 4.1123951341409704e-01 5.1395522363987500e-01
989 7.0717236262131744e-01 -5.1989936360903433e-01 5.5133626655603929e-01
990 -2.1634903583913765e+00 -5.2296385011871216e-01 -5.5207067944859911e-01
991 1.1204036591261118e-01 -1.8358629492644862e-01 -2.0194884708616673e-01
992 -7.1626362556584744e-01 -5.2370218846681993e-01 -9.8166067497557963e-01
993 -7.2695708947142457e-01 -1.7026791411316804e+00 9.1042639153062510e-01
994 2.0657678495182927e-01 2.3649424961060967e+00 2.3228705051201787e-01
995 1.4212621107037575e+00 1.1598825773667272e+00 -2.0403033178377608e+00
996 -7.9075766063475406e-01 1.5775488115641016e+00 1.2054236972694532e+00
997 -6.9685449364676555e-01 7.0737029181021394e-01 -1.7361312081564446e+00
998 2.8166277185615435e-01 -7.6125135337810090e-01 1.3137348724751559e+00
999 -9.2645968387869204e-02 7.2001191021804378e-01 -6.9212901398317150e-01
1000 0.0000000000000000e+00 0.0000000000000000e+00 0.0000000000000000e+00

Bonds

1 1 8 9
2 1 7 8
3 1 6 7
4 1 5 6
5 1 3 4
6 1 4 5
7 1 10 11
8 1 9 10
9 1 1 2
10 1 2 3
11 1 11 12
12 1 12 13
13 1 13 14
14 1 14 15
15 1 15 16
16 1 16 17
17 1 17 18
18 1 18 19
19 1 19 20
20 1 20 21
21 1 21 22
22 1 22 23
23 1 23 24
24 1 26 27
25 1 25 26
26 1 27 28
27 1 28 29
28 1 24 25
29 1 32 33
30 1 31 32
31 1 29 30
32 1 30 31
33 1 34 35
34 1 33 34
35 1 58 59
36 1 59 60
37 1 60 61
38 1 61 62
39 1 35 36
40 1 36 37
41 1 55 56
42 1 54 55
43 1 56 57
44 1 57 58
45 1 52 53
46 1 53 54
47 1 62 63
48 1 63 64
49 1 38 39
50 1 37 38
51 1 50 51
52 1 49 50
53 1 51 52
54 1 48 49
55 1 64 65
56 1 47 48
57 1 40 41
58 1 39 40
59 1 87 88
60 1 88 89
61 1 89 90
62 1 65 66
63 1 66 67
64 1 46 47
65 1 44 45
66 1 45 46
67 1 41 42
68 1 42 43
69 1 43 44
70 1 67 68
71 1 86 87
72 1 90 91
73 1 91 92
74 1 92 93
75 1 93 94
76 1 85 86
77 1 84 85
78 1 68 69
79 1 94 95
80 1 95 96
81 1 96 97
82 1 97 98
83 1 70 71
84 1 69 70
85 1 83 84
86 1 98 99
87 1 71 72
88 1 82 83
89 1 81 82
90 1 99 100
91 1 73 74
92 1 72 73
93 1 80 81
94 1 79 80
95 1 78 79
96 1 77 78
97 1 101 102
98 1 100 101
99 1 76 77
100 1 75 76
101 1 74 75
102 1 102 103
103 1 103 104
104 1 104 105
105 1 105 106
106 1 106 107
107 1 109 110
108 1 107 108
109 1 108 109
110 1 111 112
111 1 110 111
112 1 113 114
113 1 112 113
114 1 114 115
115 1 157 158
116 1 159 160
117 1 158 159
118 1 156 157
119 1 115 116
120 1 116 117
121 1 160 161
122 1 161 162
123 1 155 156
124 1 154 155
125 1 153 154
126 1 117 118
127 1 162 163
128 1 163 164
129 1 152 153
130 1 118 119
131 1 119 120
132 1 164 165
133 1 150 151
134 1 151 152
135 1 122 123
136 1 121 122
137 1 120 121
138 1 123 124
139 1 165 166
140 1 149 150
141 1 148 149
142 1 124 125
143 1 125 126
144 1 166 167
145 1 167 168
146 1 147 148
147 1 146 147
148 1 145 146
149 1 126 127
150 1 127 128
151 1 128 129
152 1 129 130
153 1 168 169
154 1 169 170
155 1 144 145
156 1 130 131
157 1 131 132
158 1 170 171
159 1 171 172
160 1 143 144
161 1 142 143
162 1 135 136
163 1 133 134
164 1 134 135
165 1 132 133
166 1 172 173
167 1 173 174
168 1 141 142
169 1 140 141
170 1 139 140
171 1 138 139
172 1 136 137
173 1 137 138
174 1 174 175
175 1 197 198
176 1 196 197
177 1 195 196
178 1 194 195
179 1 193 194
180 1 192 193
181 1 191 192
182 1 175 176
183 1 190 191
184 1 199 200
185 1 198 199
186 1 176 177
187 1 177 178
188 1 188 189
189 1 189 190
190 1 187 188
191 1 200 201
192 1 178 179
193 1 179 180
194 1 180 181
195 1 181 182
196 1 182 183
197 1 183 184
198 1 184 185
199 1 185 186
200 1 186 187
201 1 202 203
202 1 201 202
203 1 203 204
204 1 205 206
205 1 204 205
206 1 206 207
207 1 209 210
208 1 207 208
209 1 208 209
210 1 211 212
211 1 210 211
212 1 217 218
213 1 215 216
214 1 216 217
215 1 214 215
216 1 213 214
217 1 212 213
218 1 314 315
219 1 315 316
220 1 313 314
221 1 312 313
222 1 220 221
223 1 219 220
224 1 218 219
225 1 321 322
226 1 320 321
227 1 318 319
228 1 319 320
229 1 316 317
230 1 317 318
231 1 311 312
232 1 224 225
233 1 223 224
234 1 222 223
235 1 221 222
236 1 323 324
237 1 324 325
238 1 322 323
239 1 309 310
240 1 310 311
241 1 225 226
242 1 331 332
243 1 333 334
244 1 332 333
245 1 334 335
246 1 335 336
247 1 325 326
248 1 326 327
249 1 308 309
250 1 226 227
251 1 227 228
252 1 228 229
253 1 229 230
254 1 230 231
255 1 232 233
256 1 231 232
257 1 233 234
258 1 330 331
259 1 336 337
260 1 328 329
261 1 329 330
262 1 337 338
263 1 327 328
264 1 307 308
265 1 234 235
266 1 235 236
267 1 239 240
268 1 236 237
269 1 242 243
270 1 241 242
271 1 240 241
272 1 244 245
273 1 243 244
274 1 338 339
275 1 245 246
276 1 306 307
277 1 305 306
278 1 238 239
279 1 237 238
280 1 339 340
281 1 340 341
282 1 247 248
283 1 246 247
284 1 304 305
285 1 341 342
286 1 342 343
287 1 248 249
288 1 249 250
289 1 250 251
290 1 251 252
291 1 252 253
292 1 253 254
293 1 254 255
294 1 264 265
295 1 258 259
296 1 260 261
297 1 259 260
298 1 261 262
299 1 262 263
300 1 263 264
301 1 301 302
302 1 302 303
303 1 303 304
304 1 343 344
305 1 266 267
306 1 265 266
307 1 255 256
308 1 256 257
309 1 300 301
310 1 257 258
311 1 348 349
312 1 347 348
313 1 344 345
314 1 345 346
315 1 270 271
316 1 269 270
317 1 268 269
318 1 267 268
319 1 299 300
320 1 352 353
321 1 351 352
322 1 273 274
323 1 272 273
324 1 350 351
325 1 349 350
326 1 346 347
327 1 271 272
328 1 298 299
329 1 297 298
330 1 277 278
331 1 276 277
332 1 274 275
333 1 275 276
334 1 353 354
335 1 355 356
336 1 354 355
337 1 360 361
338 1 359 360
339 1 357 358
340 1 358 359
341 1 356 357
342 1 296 297
343 1 278 279
344 1 279 280
345 1 362 363
346 1 361 362
347 1 293 294
348 1 294 295
349 1 295 296
350 1 280 281
351 1 281 282
352 1 282 283
353 1 401 402
354 1 402 403
355 1 403 404
356 1 363 364
357 1 404 405
358 1 291 292
359 1 364 365
360 1 292 293
361 1 283 284
362 1 284 285
363 1 285 286
364 1 287 288
365 1 286 287
366 1 288 289
367 1 399 400
368 1 400 401
369 1 289 290
370 1 405 406
371 1 290 291
372 1 365 366
373 1 406 407
374 1 366 367
375 1 367 368
376 1 407 408
377 1 396 397
378 1 397 398
379 1 398 399
380 1 368 369
381 1 409 410
382 1 408 409
383 1 369 370
384 1 410 411
385 1 395 396
386 1 394 395
387 1 370 371
388 1 411 412
389 1 393 394
390 1 392 393
391 1 372 373
392 1 371 372
393 1 412 413
394 1 413 414
395 1 391 392
396 1 390 391
397 1 374 375
398 1 373 374
399 1 414 415
400 1 389 390
401 1 388 389
402 1 375 376
403 1 376 377
404 1 415 416
405 1 416 417
406 1 387 388
407 1 386 387
408 1 377 378
409 1 417 418
410 1 384 385
411 1 385 386
412 1 380 381
413 1 378 379
414 1 379 380
415 1 418 419
416 1 382 383
417 1 383 384
418 1 381 382
419 1 419 420
420 1 420 421
421 1 441 442
422 1 440 441
423 1 439 440
424 1 438 439
425 1 437 438
426 1 461 462
427 1 460 461
428 1 436 437
429 1 462 463
430 1 421 422
431 1 442 443
432 1 443 444
433 1 459 460
434 1 458 459
435 1 435 436
436 1 434 435
437 1 463 464
438 1 422 423
439 1 423 424
440 1 444 445
441 1 445 446
442 1 457 458
443 1 433 434
444 1 464 465
445 1 465 466
446 1 466 467
447 1 424 425
448 1 446 447
449 1 447 448
450 1 448 449
451 1 449 450
452 1 451 452
453 1 452 453
454 1 453 454
455 1 454 455
456 1 455 456
457 1 456 457
458 1 432 433
459 1 431 432
460 1 430 431
461 1 429 430
462 1 467 468
463 1 427 428
464 1 428 429
465 1 426 427
466 1 425 426
467 1 450 451
468 1 468 469
469 1 470 471
470 1 469 470
471 1 498 499
472 1 499 500
473 1 471 472
474 1 496 497
475 1 497 498
476 1 500 501
477 1 501 502
478 1 472 473
479 1 474 475
480 1 473 474
481 1 495 496
482 1 502 503
483 1 476 477
484 1 475 476
485 1 494 495
486 1 493 494
487 1 503 504
488 1 477 478
489 1 492 493
490 1 491 492
491 1 504 505
492 1 505 506
493 1 478 479
494 1 479 480
495 1 490 491
496 1 507 508
497 1 489 490
498 1 506 507
499 1 480 481
500 1 509 510
501 1 508 509
502 1 488 489
503 1 487 488
504 1 482 483
505 1 481 482
506 1 510 511
507 1 486 487
508 1 485 486
509 1 484 485
510 1 483 484
511 1 511 512
512 1 512 513
513 1 513 514
514 1 514 515
515 1 515 516
516 1 516 517
517 1 517 518
518 1 518 519
519 1 519 520
520 1 520 521
521 1 521 522
522 1 522 523
523 1 523 524
524 1 524 525
525 1 525 526
526 1 526 527
527 1 527 528
528 1 528 529
529 1 529 530
530 1 530 531
531 1 531 532
532 1 532 533
533 1 534 535
534 1 533 534
535 1 535 536
536 1 539 540
537 1 538 539
538 1 537 538
539 1 536 537
540 1 540 541
541 1 541 542
542 1 542 543
543 1 543 544
544 1 544 545
545 1 545 546
546 1 546 547
547 1 548 549
548 1 547 548
549 1 549 550
550 1 551 552
551 1 550 551
552 1 552 553
553 1 553 554
554 1 554 555
555 1 555 556
556 1 556 557
557 1 557 558
558 1 558 559
559 1 559 560
560 1 561 562
561 1 560 561
562 1 562 563
563 1 563 564
564 1 564 565
565 1 582 583
566 1 581 582
567 1 580 581
568 1 579 580
569 1 578 579
570 1 565 566
571 1 566 567
572 1 586 587
573 1 584 585
574 1 583 584
575 1 577 578
576 1 576 577
577 1 567 568
578 1 568 569
579 1 569 570
580 1 588 589
581 1 587 588
582 1 585 586
583 1 575 576
584 1 574 575
585 1 571 572
586 1 570 571
587 1 589 590
588 1 590 591
589 1 573 574
590 1 572 573
591 1 592 593
592 1 593 594
593 1 591 592
594 1 594 595
595 1 595 596
596 1 596 597
597 1 597 598
598 1 598 599
599 1 599 600
600 1 600 601
601 1 601 602
602 1 602 603
603 1 603 604
604 1 604 605
605 1 605 606
606 1 606 607
607 1 607 608
608 1 608 609
609 1 609 610
610 1 610 611
611 1 635 636
612 1 611 612
613 1 612 613
614 1 632 633
615 1 633 634
616 1 634 635
617 1 636 637
618 1 637 638
619 1 638 639
620 1 613 614
621 1 630 631
622 1 631 632
623 1 639 640
624 1 640 641
625 1 641 642
626 1 664 665
627 1 663 664
628 1 662 663
629 1 661 662
630 1 655 656
631 1 660 661
632 1 659 660
633 1 658 659
634 1 657 658
635 1 656 657
636 1 614 615
637 1 627 628
638 1 628 629
639 1 629 630
640 1 642 643
641 1 654 655
642 1 653 654
643 1 652 653
644 1 665 666
645 1 666 667
646 1 615 616
647 1 616 617
648 1 625 626
649 1 626 627
650 1 643 644
651 1 651 652
652 1 650 651
653 1 649 650
654 1 645 646
655 1 644 645
656 1 667 668
657 1 617 618
658 1 618 619
659 1 619 620
660 1 620 621
661 1 621 622
662 1 622 623
663 1 623 624
664 1 624 625
665 1 668 669
666 1 669 670
667 1 648 649
668 1 647 648
669 1 646 647
670 1 670 671
671 1 671 672
672 1 672 673
673 1 673 674
674 1 674 675
675 1 675 676
676 1 676 677
677 1 677 678
678 1 679 680
679 1 678 679
680 1 680 681
681 1 681 682
682 1 682 683
683 1 683 684
684 1 684 685
685 1 685 686
686 1 686 687
687 1 687 688
688 1 688 689
689 1 689 690
690 1 690 691
691 1 726 727
692 1 727 728
693 1 725 726
694 1 691 692
695 1 732 733
696 1 731 732
697 1 729 730
698 1 730 731
699 1 728 729
700 1 724 725
701 1 723 724
702 1 692 693
703 1 693 694
704 1 735 736
705 1 734 735
706 1 733 734
707 1 722 723
708 1 695 696
709 1 694 695
710 1 737 738
711 1 736 737
712 1 720 721
713 1 721 722
714 1 697 698
715 1 696 697
716 1 738 739
717 1 719 720
718 1 699 700
719 1 700 701
720 1 698 699
721 1 740 741
722 1 739 740
723 1 717 718
724 1 718 719
725 1 701 702
726 1 741 742
727 1 715 716
728 1 716 717
729 1 702 703
730 1 703 704
731 1 742 743
732 1 743 744
733 1 713 714
734 1 714 715
735 1 704 705
736 1 706 707
737 1 705 706
738 1 707 708
739 1 708 709
740 1 744 745
741 1 745 746
742 1 709 710
743 1 710 711
744 1 711 712
745 1 712 713
746 1 746 747
747 1 747 748
748 1 748 749
749 1 749 750
750 1 750 751
751 1 751 752
752 1 752 753
753 1 753 754
754 1 804 805
755 1 805 806
756 1 806 807
757 1 807 808
758 1 808 809
759 1 809 810
760 1 815 816
761 1 814 815
762 1 812 813
763 1 813 814
764 1 811 812
765 1 810 811
766 1 816 817
767 1 755 756
768 1 754 755
769 1 802 803
770 1 803 804
771 1 818 819
772 1 817 818
773 1 756 757
774 1 801 802
775 1 833 834
776 1 831 832
777 1 832 833
778 1 830 831
779 1 829 830
780 1 820 821
781 1 819 820
782 1 757 758
783 1 758 759
784 1 799 800
785 1 800 801
786 1 836 837
787 1 837 838
788 1 835 836
789 1 834 835
790 1 828 829
791 1 827 828
792 1 822 823
793 1 821 822
794 1 760 761
795 1 759 760
796 1 796 797
797 1 797 798
798 1 798 799
799 1 838 839
800 1 839 840
801 1 826 827
802 1 825 826
803 1 824 825
804 1 823 824
805 1 762 763
806 1 761 762
807 1 791 792
808 1 793 794
809 1 792 793
810 1 794 795
811 1 795 796
812 1 840 841
813 1 764 765
814 1 763 764
815 1 787 788
816 1 790 791
817 1 788 789
818 1 789 790
819 1 841 842
820 1 766 767
821 1 765 766
822 1 785 786
823 1 786 787
824 1 842 843
825 1 843 844
826 1 767 768
827 1 768 769
828 1 769 770
829 1 770 771
830 1 771 772
831 1 772 773
832 1 773 774
833 1 774 775
834 1 784 785
835 1 844 845
836 1 775 776
837 1 783 784
838 1 776 777
839 1 777 778
840 1 778 779
841 1 779 780
842 1 781 782
843 1 780 781
844 1 782 783
845 1 845 846
846 1 854 855
847 1 848 849
848 1 849 850
849 1 853 854
850 1 855 856
851 1 856 857
852 1 857 858
853 1 846 847
854 1 847 848
855 1 881 882
856 1 880 881
857 1 850 851
858 1 851 852
859 1 852 853
860 1 858 859
861 1 859 860
862 1 860 861
863 1 861 862
864 1 883 884
865 1 882 883
866 1 879 880
867 1 878 879
868 1 877 878
869 1 876 877
870 1 863 864
871 1 862 863
872 1 865 866
873 1 864 865
874 1 866 867
875 1 884 885
876 1 875 876
877 1 874 875
878 1 873 874
879 1 868 869
880 1 867 868
881 1 885 886
882 1 886 887
883 1 872 873
884 1 871 872
885 1 870 871
886 1 869 870
887 1 919 920
888 1 887 888
889 1 922 923
890 1 921 922
891 1 920 921
892 1 918 919
893 1 917 918
894 1 888 889
895 1 925 926
896 1 924 925
897 1 923 924
898 1 915 916
899 1 916 917
900 1 889 890
901 1 890 891
902 1 926 927
903 1 913 914
904 1 914 915
905 1 891 892
906 1 892 893
907 1 927 928
908 1 912 913
909 1 893 894
910 1 894 895
911 1 895 896
912 1 928 929
913 1 929 930
914 1 911 912
915 1 910 911
916 1 896 897
917 1 897 898
918 1 898 899
919 1 899 900
920 1 900 901
921 1 901 902
922 1 902 903
923 1 930 931
924 1 903 904
925 1 904 905
926 1 908 909
927 1 909 910
928 1 931 932
929 1 905 906
930 1 906 907
931 1 907 908
932 1 932 933
933 1 933 934
934 1 936 937
935 1 934 935
936 1 935 936
937 1 938 939
938 1 937 938
939 1 974 975
940 1 981 982
941 1 976 977
942 1 975 976
943 1 980 981
944 1 979 980
945 1 978 979
946 1 977 978
947 1 969 970
948 1 968 969
949 1 967 968
950 1 966 967
951 1 945 946
952 1 944 945
953 1 941 942
954 1 942 943
955 1 943 944
956 1 939 940
957 1 940 941
958 1 983 984
959 1 973 974
960 1 982 983
961 1 972 973
962 1 971 972
963 1 970 971
964 1 965 966
965 1 947 948
966 1 946 947
967 1 985 986
968 1 984 985
969 1 963 964
970 1 964 965
971 1 948 949
972 1 949 950
973 1 956 957
974 1 986 987
975 1 987 988
976 1 957 958
977 1 958 959
978 1 959 960
979 1 960 961
980 1 961 962
981 1 962 963
982 1 950 951
983 1 951 952
984 1 952 953
985 1 953 954
986 1 954 955
987 1 955 956
988 1 988 989
989 1 989 990
990 1 990 991
991 1 991 992
992 1 992 993
993 1 993 994
994 1 994 995
995 1 995 996
996 1 996 997
997 1 997 998
998 1 998 999
999 1 999 1000

Angles

1 1 7 8 9
2 1 6 7 8
3 1 5 6 7
4 1 4 5 6
5 1 2 3 4
6 1 3 4 5
7 1 9 10 11
8 1 8 9 10
9 1 1 2 3
10 1 10 11 12
11 1 11 12 13
12 1 12 13 14
13 1 13 14 15
14 1 14 15 16
15 1 15 16 17
16 1 16 17 18
17 1 17 18 19
18 1 18 19 20
19 1 19 20 21
20 1 20 21 22
21 1 21 22 23
22 1 22 23 24
23 1 25 26 27
24 1 24 25 26
25 1 26 27 28
26 1 27 28 29
27 1 23 24 25
28 1 31 32 33
29 1 30 31 32
30 1 28 29 30
31 1 29 30 31
32 1 33 34 35
33 1 32 33 34
34 1 57 58 59
35 1 58 59 60
36 1 59 60 61
37 1 60 61 62
38 1 34 35 36
39 1 35 36 37
40 1 54 55 56
41 1 53 54 55
42 1 55 56 57
43 1 56 57 58
44 1 51 52 53
45 1 52 53 54
46 1 61 62 63
47 1 62 63 64
48 1 37 38 39
49 1 36 37 38
50 1 49 50 51
51 1 48 49 50
52 1 50 51 52
53 1 47 48 49
54 1 63 64 65
55 1 46 47 48
56 1 39 40 41
57 1 38 39 40
58 1 86 87 88
59 1 87 88 89
60 1 88 89 90
61 1 64 65 66
62 1 65 66 67
63 1 45 46 47
64 1 43 44 45
65 1 44 45 46
66 1 40 41 42
67 1 41 42 43
68 1 42 43 44
69 1 66 67 68
70 1 85 86 87
71 1 89 90 91
72 1 90 91 92
73 1 91 92 93
74 1 92 93 94
75 1 84 85 86
76 1 83 84 85
77 1 67 68 69
78 1 93 94 95
79 1 94 95 96
80 1 95 96 97
81 1 96 97 98
82 1 69 70 71
83 1 68 69 70
84 1 82 83 84
85 1 97 98 99
86 1 70 71 72
87 1 81 82 83
88 1 80 81 82
89 1 98 99 100
90 1 72 73 74
91 1 71 72 73
92 1 79 80 81
93 1 78 79 80
94 1 77 78 79
95 1 76 77 78
96 1 100 101 102
97 1 99 100 101
98 1 75 76 77
99 1 74 75 76
100 1 73 74 75
101 1 101 102 103
102 1 102 103 104
103 1 103 104 105
104 1 104 105 106
105 1 105 106 107
106 1 108 109 110
107 1 106 107 108
108 1 107 108 109
109 1 110 111 112
110 1 109 110 111
111 1 112 113 114
112 1 111 112 113
113 1 113 114 115
114 1 156 157 158
115 1 158 159 160
116 1 157 158 159
117 1 155 156 157
118 1 114 115 116
119 1 115 116 117
120 1 159 160 161
121 1 160 161 162
122 1 154 155 156
123 1 153 154 155
124 1 152 153 154
125 1 116 117 118
126 1 161 162 163
127 1 162 163 164
128 1 151 152 153
129 1 117 118 119
130 1 118 119 120
131 1 163 164 165
132 1 149 150 151
133 1 150 151 152
134 1 121 122 123
135 1 120 121 122
136 1 119 120 121
137 1 122 123 124
138 1 164 165 166
139 1 148 149 150
140 1 147 148 149
141 1 123 124 125
142 1 124 125 126
143 1 165 166 167
144 1 166 167 168
145 1 146 147 148
146 1 145 146 147
147 1 144 145 146
148 1 125 126 127
149 1 126 127 128
150 1 127 128 129
151 1 128 129 130
152 1 167 168 169
153 1 168 169 170
154 1 143 144 145
155 1 129 130 131
156 1 130 131 132
157 1 169 170 171
158 1 170 171 172
159 1 142 143 144
160 1 141 142 143
161 1 134 135 136
162 1 132 133 134
163 1 133 134 135
164 1 131 132 133
165 1 171 172 173
166 1 172 173 174
167 1 140 141 142
168 1 139 140 141
169 1 138 139 140
170 1 137 138 139
171 1 135 136 137
172 1 136 137 138
173 1 173 174 175
174 1 196 197 198
175 1 195 196 197
176 1 194 195 196
177 1 193 194 195
178 1 192 193 194
179 1 191 192 193
180 1 190 191 192
181 1 174 175 176
182 1 189 190 191
183 1 198 199 200
184 1 197 198 199
185 1 175 176 177
186 1 176 177 178
187 1 187 188 189
188 1 188 189 190
189 1 186 187 188
190 1 199 200 201
191 1 177 178 179
192 1 178 179 180
193 1 179 180 181
194 1 180 181 182
195 1 181 182 183
196 1 182 183 184
197 1 183 184 185
198 1 184 185 186
199 1 185 186 187
200 1 201 202 203
201 1 200 201 202
202 1 202 203 204
203 1 204 205 206
204 1 203 204 205
205 1 205 206 207
206 1 208 209 210
207 1 206 207 208
208 1 207 208 209
209 1 210 211 212
210 1 209 210 211
211 1 216 217 218
212 1 214 215 216
213 1 215 216 217
214 1 213 214 215
215 1 212 213 214
216 1 211 212 213
217 1 313 314 315
218 1 314 315 316
219 1 312 313 314
220 1 311 312 313
221 1 219 220 221
222 1 218 219 220
223 1 217 218 219
224 1 320 321 322
225 1 319 320 321
226 1 317 318 319
227 1 318 319 320
228 1 315 316 317
229 1 316 317 318
230 1 310 311 312
231 1 223 224 225
232 1 222 223 224
233 1 221 222 223
234 1 220 221 222
235 1 322 323 324
236 1 323 324 325
237 1 321 322 323
238 1 308 309 310
239 1 309 310 311
240 1 224 225 226
241 1 330 331 332
242 1 332 333 334
243 1 331 332 333
244 1 333 334 335
245 1 334 335 336
246 1 324 325 326
247 1 325 326 327
248 1 307 308 309
249 1 225 226 227
250 1 226 227 228
251 1 227 228 229
252 1 228 229 230
253 1 229 230 231
254 1 231 232 233
255 1 230 231 232
256 1 232 233 234
257 1 329 330 331
258 1 335 336 337
259 1 327 328 329
260 1 328 329 330
261 1 336 337 338
262 1 326 327 328
263 1 306 307 308
264 1 233 234 235
265 1 234 235 236
266 1 238 239 240
267 1 235 236 237
268 1 241 242 243
269 1 240 241 242
270 1 239 240 241
271 1 243 244 245
272 1 242 243 244
273 1 337 338 339
274 1 244 245 246
275 1 305 306 307
276 1 304 305 306
277 1 237 238 239
278 1 236 237 238
279 1 338 339 340
280 1 339 340 341
281 1 246 247 248
282 1 245 246 247
283 1 303 304 305
284 1 340 341 342
285 1 341 342 343
286 1 247 248 249
287 1 248 249 250
288 1 249 250 251
289 1 250 251 252
290 1 251 252 253
291 1 252 253 254
292 1 253 254 255
293 1 263 264 265
294 1 257 258 259
295 1 259 260 261
296 1 258 259 260
297 1 260 261 262
298 1 261 262 263
299 1 262 263 264
300 1 300 301 302
301 1 301 302 303
302 1 302 303 304
303 1 342 343 344
304 1 265 266 267
305 1 264 265 266
306 1 254 255 256
307 1 255 256 257
308 1 299 300 301
309 1 256 257 258
310 1 347 348 349
311 1 346 347 348
312 1 343 344 345
313 1 344 345 346
314 1 269 270 271
315 1 268 269 270
316 1 267 268 269
317 1 266 267 268
318 1 298 299 300
319 1 351 352 353
320 1 350 351 352
321 1 272 273 274
322 1 271 272 273
323 1 349 350 351
324 1 348 349 350
325 1 345 346 347
326 1 270 271 272
327 1 297 298 299
328 1 296 297 298
329 1 276 277 278
330 1 275 276 277
331 1 273 274 275
332 1 274 275 276
333 1 352 353 354
334 1 354 355 356
335 1 353 354 355
336 1 359 360 361
337 1 358 359 360
338 1 356 357 358
339 1 357 358 359
340 1 355 356 357
341 1 295 296 297
342 1 277 278 279
343 1 278 279 280
344 1 361 362 363
345 1 360 361 362
346 1 292 293 294
347 1 293 294 295
348 1 294 295 296
349 1 279 280 281
350 1 280 281 282
351 1 281 282 283
352 1 400 401 402
353 1 401 402 403
354 1 402 403 404
355 1 362 363 364
356 1 403 404 405
357 1 290 291 292
358 1 363 364 365
359 1 291 292 293
360 1 282 283 284
361 1 283 284 285
362 1 284 285 286
363 1 286 287 288
364 1 285 286 287
365 1 287 288 289
366 1 398 399 400
367 1 399 400 401
368 1 288 289 290
369 1 404 405 406
370 1 289 290 291
371 1 364 365 366
372 1 405 406 407
373 1 365 366 367
374 1 366 367 368
375 1 406 407 408
376 1 395 396 397
377 1 396 397 398
378 1 397 398 399
379 1 367 368 369
380 1 408 409 410
381 1 407 408 409
382 1 368 369 370
383 1 409 410 411
384 1 394 395 396
385 1 393 394 395
386 1 369 370 371
387 1 410 411 412
388 1 392 393 394
389 1 391 392 393
390 1 371 372 373
391 1 370 371 372
392 1 411 412 413
393 1 412 413 414
394 1 390 391 392
395 1 389 390 391
396 1 373 374 375
397 1 372 373 374
398 1 413 414 415
399 1 388 389 390
400 1 387 388 389
401 1 374 375 376
402 1 375 376 377
403 1 414 415 416
404 1 415 416 417
405 1 386 387 388
406 1 385 386 387
407 1 376 377 378
408 1 416 417 418
409 1 383 384 385
410 1 384 385 386
411 1 379 380 381
412 1 377 378 379
413 1 378 379 380
414 1 417 418 419
415 1 381 382 383
416 1 382 383 384
417 1 380 381 382
418 1 418 419 420
419 1 419 420 421
420 1 440 441 442
421 1 439 440 441
422 1 438 439 440
423 1 437 438 439
424 1 436 437 438
425 1 460 461 462
426 1 459 460 461
427 1 435 436 437
428 1 461 462 463
429 1 420 421 422
430 1 441 442 443
431 1 442 443 444
432 1 458 459 460
433 1 457 458 459
434 1 434 435 436
435 1 433 434 435
436 1 462 463 464
437 1 421 422 423
438 1 422 423 424
439 1 443 444 445
440 1 444 445 446
441 1 456 457 458
442 1 432 433 434
443 1 463 464 465
444 1 464 465 466
445 1 465 466 467
446 1 423 424 425
447 1 445 446 447
448 1 446 447 448
449 1 447 448 449
450 1 448 449 450
451 1 450 451 452
452 1 451 452 453
453 1 452 453 454
454 1 453 454 455
455 1 454 455 456
456 1 455 456 457
457 1 431 432 433
458 1 430 431 432
459 1 429 430 431
460 1 428 429 430
461 1 466 467 468
462 1 426 427 428
463 1 427 428 429
464 1 425 426 427
465 1 424 425 426
466 1 449 450 451
467 1 467 468 469
468 1 469 470 471
469 1 468 469 470
470 1 497 498 499
471 1 498 499 500
472 1 470 471 472
473 1 495 496 497
474 1 496 497 498
475 1 499 500 501
476 1 500 501 502
477 1 471 472 473
478 1 473 474 475
479 1 472 473 474
480 1 494 495 496
481 1 501 502 503
482 1 475 476 477
483 1 474 475 476
484 1 493 494 495
485 1 492 493 494
486 1 502 503 504
487 1 476 477 478
488 1 491 492 493
489 1 490 491 492
490 1 503 504 505
491 1 504 505 506
492 1 477 478 479
493 1 478 479 480
494 1 489 490 491
495 1 506 507 508
496 1 488 489 490
497 1 505 506 507
498 1 479 480 481
499 1 508 509 510
500 1 507 508 509
501 1 487 488 489
502 1 486 487 488
503 1 481 482 483
504 1 480 481 482
505 1 509 510 511
506 1 485 486 487
507 1 484 485 486
508 1 483 484 485
509 1 482 483 484
510 1 510 511 512
511 1 511 512 513
512 1 512 513 514
513 1 513 514 515
514 1 514 515 516
515 1 515 516 517
516 1 516 517 518
517 1 517 518 519
518 1 518 519 520
519 1 519 520 521
520 1 520 521 522
521 1 521 522 523
522 1 522 523 524
523 1 523 524 525
524 1 524 525 526
525 1 525 526 527
526 1 526 527 528
527 1 527 528 529
528 1 528 529 530
529 1 529 530 531
530 1 530 531 532
531 1 531 532 533
532 1 533 534 535
533 1 532 533 534
534 1 534 535 536
535 1 538 539 540
536 1 537 538 539
537 1 536 537 538
538 1 535 536 537
539 1 539 540 541
540 1 540 541 542
541 1 541 542 543
542 1 542 543 544
543 1 543 544 545
544 1 544 545 546
545 1 545 546 547
546 1 547 548 549
547 1 546 547 548
548 1 548 549 550
549 1 550 551 552
550 1 549 550 551
551 1 551 552 553
552 1 552 553 554
553 1 553 554 555
554 1 554 555 556
555 1 555 556 557
556 1 556 557 558
557 1 557 558 559
558 1 558 559 560
559 1 560 561 562
560 1 559 560 561
561 1 561 562 563
562 1 562 563 564
563 1 563 564 565
564 1 581 582 583
565 1 580 581 582
566 1 579 580 581
567 1 578 579 580
568 1 577 578 579
569 1 564 565 566
570 1 565 566 567
571 1 585 586 587
572 1 583 584 585
573 1 582 583 584
574 1 576 577 578
575 1 575 576 577
576 1 566 567 568
577 1 567 568 569
578 1 568 569 570
579 1 587 588 589
580 1 586 587 588
581 1 584 585 586
582 1 574 575 576
583 1 573 574 575
584 1 570 571 572
585 1 569 570 571
586 1 588 589 590
587 1 589 590 591
588 1 572 573 574
589 1 571 572 573
590 1 591 592 593
591 1 592 593 594
592 1 590 591 592
593 1 593 594 595
594 1 594 595 596
595 1 595 596 597
596 1 596 597 598
597 1 597 598 599
598 1 598 599 600
599 1 599 600 601
600 1 600 601 602
601 1 601 602 603
602 1 602 603 604
603 1 603 604 605
604 1 604 605 606
605 1 605 606 607
606 1 606 607 608
607 1 607 608 609
608 1 608 609 610
609 1 609 610 611
610 1 634 635 636
611 1 610 611 612
612 1 611 612 613
613 1 631 632 633
614 1 632 633 634
615 1 633 634 635
616 1 635 636 637
617 1 636 637 638
618 1 637 638 639
619 1 612 613 614
620 1 629 630 631
621 1 630 631 632
622 1 638 639 640
623 1 639 640 641
624 1 640 641 642
625 1 663 664 665
626 1 662 663 664
627 1 661 662 663
628 1 660 661 662
629 1 654 655 656
630 1 659 660 661
631 1 658 659 660
632 1 657 658 659
633 1 656 657 658
634 1 655 656 657
635 1 613 614 615
636 1 626 627 628
637 1 627 628 629
638 1 628 629 630
639 1 641 642 643
640 1 653 654 655
641 1 652 653 654
642 1 651 652 653
643 1 664 665 666
644 1 665 666 667
645 1 614 615 616
646 1 615 616 617
647 1 624 625 626
648 1 625 626 627
649 1 642 643 644
650 1 650 651 652
651 1 649 650 651
652 1 648 649 650
653 1 644 645 646
654 1 643 644 645
655 1 666 667 668
656 1 616 617 618
657 1 617 618 619
658 1 618 619 620
659 1 619 620 621
660 1 620 621 622
661 1 621 622 623
662 1 622 623 624
663 1 623 624 625
664 1 667 668 669
665 1 668 669 670
666 1 647 648 649
667 1 646 647 648
668 1 645 646 647
669 1 669 670 671
670 1 670 671 672
671 1 671 672 673
672 1 672 673 674
673 1 673 674 675
674 1 674 675 676
675 1 675 676 677
676 1 676 677 678
677 1 678 679 680
678 1 677 678 679
679 1 679 680 681
680 1 680 681 682
681 1 681 682 683
682 1 682 683 684
683 1 683 684 685
684 1 684 685 686
685 1 685 686 687
686 1 686 687 688
687 1 687 688 689
688 1 688 689 690
689 1 689 690 691
690 1 725 726 727
691 1 726 727 728
692 1 724 725 726
693 1 690 691 692
694 1 731 732 733
695 1 730 731 732
696 1 728 729 730
697 1 729 730 731
698 1 727 728 729
699 1 723 724 725
700 1 722 723 724
701 1 691 692 693
702 1 692 693 694
703 1 734 735 736
704 1 733 734 735
705 1 732 733 734
706 1 721 722 723
707 1 694 695 696
708 1 693 694 695
709 1 736 737 738
710 1 735 736 737
711 1 719 720 721
712 1 720 721 722
713 1 696 697 698
714 1 695 696 697
715 1 737 738 739
716 1 718 719 720
717 1 698 699 700
718 1 699 700 701
719 1 697 698 699
720 1 739 740 741
721 1 738 739 740
722 1 716 717 718
723 1 717 718 719
724 1 700 701 702
725 1 740 741 742
726 1 714 715 716
727 1 715 716 717
728 1 701 702 703
729 1 702 703 704
730 1 741 742 743
731 1 742 743 744
732 1 712 713 714
733 1 713 714 715
734 1 703 704 705
735 1 705 706 707
736 1 704 705 706
737 1 706 707 708
738 1 707 708 709
739 1 743 744 745
740 1 744 745 746
741 1 708 709 710
742 1 709 710 711
743 1 710 711 712
744 1 711 712 713
745 1 745 746 747
746 1 746 747 748
747 1 747 748 749
748 1 748 749 750
749 1 749 750 751
750 1 750 751 752
751 1 751 752 753
752 1 752 753 754
753 1 803 804 805
754 1 804 805 806
755 1 805 806 807
756 1 806 807 808
757 1 807 808 809
758 1 808 809 810
759 1 814 815 816
760 1 813 814 815
761 1 811 812 813
762 1 812 813 814
763 1 810 811 812
764 1 809 810 811
765 1 815 816 817
766 1 754 755 756
767 1 753 754 755
768 1 801 802 803
769 1 802 803 804
770 1 817 818 819
771 1 816 817 818
772 1 755 756 757
773 1 800 801 802
774 1 832 833 834
775 1 830 831 832
776 1 831 832 833
777 1 829 830 831
778 1 828 829 830
779 1 819 820 821
780 1 818 819 820
781 1 756 757 758
782 1 757 758 759
783 1 798 799 800
784 1 799 800 801
785 1 835 836 837
786 1 836 837 838
787 1 834 835 836
788 1 833 834 835
789 1 827 828 829
790 1 826 827 828
791 1 821 822 823
792 1 820 821 822
793 1 759 760 761
794 1 758 759 760
795 1 795 796 797
796 1 796 797 798
797 1 797 798 799
798 1 837 838 839
799 1 838 839 840
800 1 825 826 827
801 1 824 825 826
802 1 823 824 825
803 1 822 823 824
804 1 761 762 763
805 1 760 761 762
806 1 790 791 792
807 1 792 793 794
808 1 791 792 793
809 1 793 794 795
810 1 794 795 796
811 1 839 840 841
812 1 763 764 765
813 1 762 763 764
814 1 786 787 788
815 1 789 790 791
816 1 787 788 789
817 1 788 789 790
818 1 840 841 842
819 1 765 766 767
820 1 764 765 766
821 1 784 785 786
822 1 785 786 787
823 1 841 842 843
824 1 842 843 844
825 1 766 767 768
826 1 767 768 769
827 1 768 769 770
828 1 769 770 771
829 1 770 771 772
830 1 771 772 773
831 1 772 773 774
832 1 773 774 775
833 1 783 784 785
834 1 843 844 845
835 1 774 775 776
836 1 782 783 784
837 1 775 776 777
838 1 776 777 778
839 1 777 778 779
840 1 778 779 780
841 1 780 781 782
842 1 779 780 781
843 1 781 782 783
844 1 844 845 846
845 1 853 854 855
846 1 847 848 849
847 1 848 849 850
848 1 852 853 854
849 1 854 855 856
850 1 855 856 857
851 1 856 857 858
852 1 845 846 847
853 1 846 847 848
854 1 880 881 882
855 1 879 880 881
856 1 849 850 851
857 1 850 851 852
858 1 851 852 853
859 1 857 858 859
860 1 858 859 860
861 1 859 860 861
862 1 860 861 862
863 1 882 883 884
864 1 881 882 883
865 1 878 879 880
866 1 877 878 879
867 1 876 877 878
868 1 875 876 877
869 1 862 863 864
870 1 861 862 863
871 1 864 865 866
872 1 863 864 865
873 1 865 866 867
874 1 883 884 885
875 1 874 875 876
876 1 873 874 875
877 1 872 873 874
878 1 867 868 869
879 1 866 867 868
880 1 884 885 886
881 1 885 886 887
882 1 871 872 873
883 1 870 871 872
884 1 869 870 871
885 1 868 869 870
886 1 918 919 920
887 1 886 887 888
888 1 921 922 923
889 1 920 921 922
890 1 919 920 921
891 1 917 918 919
892 1 916 917 918
893 1 887 888 889
894 1 924 925 926
895 1 923 924 925
896 1 922 923 924
897 1 914 915 916
898 1 915 916 917
899 1 888 889 890
900 1 889 890 891
901 1 925 926 927
902 1 912 913 914
903 1 913 914 915
904 1 890 891 892
905 1 891 892 893
906 1 926 927 928
907 1 911 912 913
908 1 892 893 894
909 1 893 894 895
910 1 894 895 896
911 1 927 928 929
912 1 928 929 930
913 1 910 911 912
914 1 909 910 911
915 1 895 896 897
916 1 896 897 898
917 1 897 898 899
918 1 898 899 900
919 1 899 900 901
920 1 900 901 902
921 1 901 902 903
922 1 929 930 931
923 1 902 903 904
924 1 903 904 905
925 1 907 908 909
926 1 908 909 910
927 1 930 931 932
928 1 904 905 906
929 1 905 906 907
930 1 906 907 908
931 1 931 932 933
932 1 932 933 934
933 1 935 936 937
934 1 933 934 935
935 1 934 935 936
936 1 937 938 939
937 1 936 937 938
938 1 973 974 975
939 1 980 981 982
940 1 975 976 977
941 1 974 975 976
942 1 979 980 981
943 1 978 979 980
944 1 977 978 979
945 1 976 977 978
946 1 968 969 970
947 1 967 968 969
948 1 966 967 968
949 1 965 966 967
950 1 944 945 946
951 1 943 944 945
952 1 940 941 942
953 1 941 942 943
954 1 942 943 944
955 1 938 939 940
956 1 939 940 941
957 1 982 983 984
958 1 972 973 974
959 1 981 982 983
960 1 971 972 973
961 1 970 971 972
962 1 969 970 971
963 1 964 965 966
964 1 946 947 948
965 1 945 946 947
966 1 984 985 986
967 1 983 984 985
968 1 962 963 964
969 1 963 964 965
970 1 947 948 949
971 1 948 949 950
972 1 955 956 957
973 1 985 986 987
974 1 986 987 988
975 1 956 957 958
976 1 957 958 959
977 1 958 959 960
978 1 959 960 961
979 1 960 961 962
980 1 961 962 963
981 1 949 950 951
982 1 950 951 952
983 1 951 952 953
984 1 952 953 954
985 1 953 954 955
986 1 954 955 956
987 1 987 988 989
988 1 988 989 990
989 1 989 990 991
990 1 990 991 992
991 1 991 992 993
992 1 992 993 994
993 1 993 994 995
994 1 994 995 996
995 1 995 996 997
996 1 996 997 998
997 1 997 998 999
998 1 998 999 1000
