LAMMPS data file via write_data, version 29 Aug 2024, timestep = 30000, units = lj

60 atoms
6 atom types
18 bonds
4 bond types
16 angles
1 angle types

-6.39719 6.39719 xlo xhi
-6.39719 6.39719 ylo yhi
-6.39719 6.39719 zlo zhi

Masses

1 1
2 1
3 1
4 1
5 1
6 1

Atoms # angle

29 10 2 3.169777142642688 -3.830781334589612 -5.264625307315239 -1 0 0
28 10 1 2.985285912210889 -3.52871310352334 -4.91147127622646 -1 0 0
30 10 2 2.6342849735312015 -3.3702660449174253 -5.230364472555751 -1 0 0
27 9 2 3.29775544186155 -3.233184058213848 -3.5738887902385845 -1 0 0
26 9 2 2.819582820547121 -3.4289553892667657 -4.056614934302749 -1 0 0
25 9 1 3.268887859204138 -3.210158903986536 -4.0725234309769975 -1 0 0
23 8 2 4.319183529686743 -2.6423845826744854 -3.401926205249812 -1 0 0
22 8 1 4.16119029756567 -2.8091428174989566 -3.846031856781251 -1 0 0
24 8 2 3.8905097656200303 -2.3930436124338934 -3.9059776753997917 -1 0 0
21 7 2 4.835634532838943 -1.6553277135994118 -4.065275566273562 -1 0 0
19 7 1 4.454833641413844 -1.9615637430082857 -4.17115462644023 -1 0 0
20 7 2 4.661576882957872 -2.065393436147952 -4.6144114672203695 -1 0 0
17 6 2 4.803305602661906 -1.3011209930777683 -4.9436951321933895 -1 0 0
16 6 1 4.726294419675541 -1.0893232423826391 -4.497364547877768 -1 0 0
18 6 2 4.344802360261219 -0.8278028128724552 -4.687287883865289 -1 0 0
15 5 2 3.6075788174500403 -1.2185474378769772 -5.279581046330469 -1 0 0
13 5 1 4.086042686792232 -1.1625051306548264 -5.145672176066706 -1 0 0
14 5 2 4.140786868750553 -1.6593462139061916 -5.133342839696711 -1 0 0
11 4 2 3.6871774517070106 -1.1921908832017998 -6.03847826271636 -1 0 0
45 15 2 0.42984573095387524 -0.10820482353734626 -0.5405492261888867 0 0 1
10 4 1 3.925350240428924 -1.6314746492374472 -6.021057137323178 -1 0 0
12 4 2 3.558583637515338 -1.8409419525896937 -6.288649565866226 -1 0 0
36 12 2 -0.21163056909927475 2.827912472168136 -1.4870841437548519 0 0 1
37 13 1 -0.19924890053260166 1.7718749936784997 -1.4912560637618524 0 0 1
39 13 2 -0.14455183888942624 1.787228284817187 -1.988018087168245 0 0 1
35 12 2 -0.18262927992024247 2.172925635260404 -1.7519448027881606 0 0 1
33 11 2 0.26887508781639297 3.7205463644761867 -2.0517549542248807 0 0 1
32 11 2 0.4558830115665773 3.062684099413151 -2.2313246528401462 0 0 1
34 12 1 0.07092400450242868 2.596946015239569 -1.8288697618118792 0 0 1
38 13 2 0.24325829827865414 1.9978925195816553 -1.4355473841433917 0 0 1
40 14 1 0.17395728454330261 0.9846852801874872 -0.8943973807084837 0 0 1
41 14 2 0.3604427326885313 0.5439942952318428 -0.7494331319817809 0 0 1
31 11 1 0.07982802874078385 3.3689748869582834 -2.352850795529177 0 0 1
42 14 2 0.49882224221027266 1.2202707740501864 -0.5961320049748826 0 0 1
43 15 1 0.5445408194784717 0.3265114803061234 -0.3217644647428306 0 0 1
58 20 1 -2.4827059752772715 -1.7852035743093604 1.8663937961203223 0 0 1
60 20 2 -2.4832740693882696 -1.3180852743302205 2.044719820843803 0 0 1
57 19 2 -1.6350451748440225 -1.117873748896899 1.6779948415503778 0 0 1
55 19 1 -2.087928498313586 -0.9247986413819717 1.5907096871353137 0 0 1
59 20 2 -2.9740000222230156 -1.8188569858755819 1.9529825212849015 0 0 1
56 19 2 -1.8839491692991999 -0.583278815188452 1.287796099372089 0 0 1
53 18 2 -1.0482791772201947 -0.040848621764097225 1.5713746460952107 0 0 1
52 18 1 -1.5416492542501015 -0.09132667904776276 1.5078299152013686 0 0 1
51 17 2 -0.7893404112591063 -0.2078156667589837 1.184541228677649 0 0 1
8 3 2 3.3514084687248635 -2.041233353091707 6.0071588863371135 -1 0 -1
4 2 1 4.337220327632321 -1.9799831113289454 5.0680853181205805 -1 0 -1
6 2 2 4.376922774251207 -1.485713217643893 5.00388260844224 -1 0 -1
9 3 2 3.955989533836936 -2.102693028600781 5.645628190552826 -1 0 -1
7 3 1 3.7158778634987786 -1.7268833253556197 5.871711035355796 -1 0 -1
5 2 2 4.031412309917609 -1.9049681634114939 5.4564848725620605 -1 0 -1
3 1 2 4.841557102228587 -2.1330749380747953 3.7081619589401247 -1 0 -1
1 1 1 4.790524449206546 -2.1031231028643638 4.204647765276237 -1 0 -1
2 1 2 5.266477421674729 -1.9552424024089237 4.2446485956614834 -1 0 -1
48 16 2 -0.22183763294323094 0.8051280401954783 0.6615330471665809 0 0 1
54 18 2 -1.6227058465358517 0.1960094631952598 1.9089131611839445 0 0 1
49 17 1 -0.7682761740972169 0.2843159761885262 1.0987347958035787 0 0 1
50 17 2 -1.0495783319212943 0.36697328580117555 1.5037494438980843 0 0 1
47 16 2 0.4386697444667686 0.5765413948986997 0.768664508371633 0 0 1
46 16 1 0.05145954204566638 0.42200008952353507 0.4926495738573039 0 0 1
44 15 2 0.22214161448816022 0.22600270970143363 0.04695594377444817 0 0 1

Velocities

29 -0.6435020819102893 -0.3778764516823522 0.8087248461872281
28 -0.11944697255000791 -0.17332972441463618 0.9075386803553073
30 -1.2243826854807665 -1.1163051600871057 1.6551927257971424
27 0.06227167807273937 0.7606280093186333 0.02631870439030987
26 0.3130191431810191 0.4725953885642801 -0.10525080744991155
25 0.2617816550726886 0.5859531117373626 0.006702563814941397
23 -0.29682629714553443 -1.0665162330995719 -1.167007737597286
22 -0.13766492959936943 0.26558328878342885 -1.7238234027761261
24 0.13426844115753622 0.5877751843500661 -0.7153006472834778
21 0.4613357341392538 0.4136571103605867 -0.9706000566018183
19 0.1728511274600144 0.22546489587074847 0.6112654383625176
20 -0.26048604543726694 -1.7460761225430856 0.8709680679829865
17 -0.155616186913104 1.593952551154528 -0.16709253615843866
16 0.16107013145998467 1.0435073839002411 0.14875280644815864
18 -1.142389907664995 -0.09907907658866388 1.1936478519075595
15 -0.5059378013010487 0.028011007672507915 -0.5810375102095361
13 -0.770614455782253 0.5833868239240416 0.13223618048300245
14 -0.36509897730554186 0.6436766804192261 0.761212812864003
11 0.493533662797218 0.4962094330216611 -0.30102729570604736
45 0.13785970585948065 0.8836400696934985 -1.7854929185716202
10 0.08576349742526843 0.3137935099033528 0.6740763998681392
12 -0.3529120745494079 -0.055299187019951845 1.5642525626347874
36 0.12270396938672301 0.11071303750730219 0.2728482825293344
37 0.006254681030081921 0.21569767352544122 -0.2899796625101738
39 0.8225140805265727 -1.9015245208925273 -0.2655400689767542
35 -1.5340608782212088 -0.007825664002334282 0.3845786271332569
33 -0.9897727877176279 -0.047812212820862565 1.9932116664029456
32 0.4669485003524369 1.2576205128193934 -1.2722418635312316
34 -0.04229444425759382 -0.8296011645117319 0.7718744972580762
38 0.6835576023303523 -1.0614686746926383 -0.48832290697262
40 0.553240529907328 -0.22492473794446385 0.00846815521654587
41 0.06433182468613136 -0.060575702430212694 1.137032603137752
31 -0.2789743573737998 0.9828605810967681 0.3434728068576293
42 0.8935422722788167 0.18255814105671142 -0.6840331648296594
43 0.6898164555504519 -0.5669825551770333 0.8074782451341762
58 0.6346926170924742 -0.75273371309821 -0.40771938155095744
60 1.6385531260475246 -0.5706727833362911 -0.8814231210393276
57 -0.3326488244616681 1.7822670825658733 -0.036486431528072294
55 -0.5846767427542874 0.7169943914069016 -1.0852145772041155
59 0.8435403862228139 -0.13915170991424836 1.0157314561896482
56 -0.8204795575640502 0.47292728777760606 -1.519175482445458
53 -0.2551209639275779 -0.6735515831092099 -0.1634364415724313
52 -0.2599275471794959 -0.6563780136636529 -0.13975964090228452
51 -0.8143496778318962 -0.22217470594733987 0.012647346026745776
8 -0.03369132069359909 -0.37924094012093124 0.8152883736044426
4 0.7194326834123195 -0.21490436029168286 1.1909833546045008
6 -1.5208147410206867 -0.2103947879871606 -0.15965057334918853
9 -0.5501715042244433 0.23892961451064448 -0.1534999070295665
7 -0.68736253345468 0.040534252782820204 0.03058188329174924
5 -0.07936681173710669 -0.5494486589758233 0.6266586417801678
3 0.6824586023866352 0.7978638311845231 0.10108300866529615
1 -0.6846446664208456 1.998687707152848 -0.1118813586192044
2 -0.1243971151198016 -0.1169586292433924 1.0433890279563862
48 -0.3226979673818615 1.2764472218678473 -0.3704356187856901
54 -0.23043149093240467 -0.6787209050095694 -0.11779220621284983
49 -0.16814315498516835 -0.0067386211769955295 1.4068873557074655
50 -0.09188064987970435 -0.7872394619575851 1.6191436464392308
47 -0.4336265654202634 0.32605179114968974 -1.7143783245381994
46 -1.790317520009315 -0.12940294830150134 0.4438786196796932
44 0.1595150708396895 -2.1077029161424283 -0.07618494962220579

Bonds

1 1 25 28
2 1 22 25
3 1 19 22
4 1 16 19
5 1 13 16
6 1 10 13
7 1 37 40
8 1 34 37
9 1 40 43
10 1 31 34
11 1 43 46
12 1 55 58
13 1 52 55
14 1 4 7
15 1 7 10
16 1 1 4
17 1 49 52
18 1 46 49

Angles

1 1 22 25 28
2 1 19 22 25
3 1 16 19 22
4 1 13 16 19
5 1 10 13 16
6 1 7 10 13
7 1 34 37 40
8 1 31 34 37
9 1 37 40 43
10 1 40 43 46
11 1 52 55 58
12 1 49 52 55
13 1 1 4 7
14 1 4 7 10
15 1 46 49 52
16 1 43 46 49
