LAMMPS data file via write_data, version 29 Aug 2024, timestep = 150000, units = lj

20 atoms
5 atom types
18 bonds
4 bond types
16 angles
1 angle types

-6.39719 6.39719 xlo xhi
-6.39719 6.39719 ylo yhi
-6.39719 6.39719 zlo zhi

Masses

1 1
2 1
3 1
4 1
5 1


Atoms # angle

10 1 1 -4.0585927363836225 -1.5705146140136417 -0.45609022064309995 0 0 0
18 2 1 2.314273119581462 -1.2794603229116046 -1.997002484102213 0 0 0
17 2 1 1.2454615079578661 -0.8489104364496746 -1.7552248701508792 0 0 0
20 2 1 4.487776711255325 -1.9911690060362806 -1.7493732987847623 0 0 0
19 2 1 3.482979765417446 -1.5708374860891074 -2.046634692546883 0 0 0
16 2 1 0.8026380892356019 -0.7559689784373986 -0.732088181493767 0 0 0
11 2 1 2.7980942286929995 2.1384041795036217 -0.4493094404916463 0 0 0
3 1 1 -1.6194558845755063 -3.5802233398985317 3.3774239215717117 0 0 0
2 1 1 -0.699462823626875 -3.416754513564364 2.9398083450723402 0 0 0
4 1 1 -2.5340343601199997 -3.688602165393305 3.661541857245465 0 0 0
5 1 1 -3.500427385773809 -3.6151574963751893 3.251777172371196 0 0 0
6 1 1 -4.31871223081617 -2.943991948773622 2.9242822576712904 0 0 0
7 1 1 -4.932913351534303 -2.6128219672005506 2.1857361455340274 0 0 0
8 1 1 -5.015898979110465 -2.5641948151005116 1.1467358819850098 0 0 0
9 1 1 -4.834708021564467 -2.0918361988782888 0.10354453411999386 0 0 0
15 2 1 0.61752582096615 -0.34031603182188674 0.28623541096909455 0 0 0
1 1 1 0.13576772372579066 -3.398814068978192 2.1810769962717096 0 0 0
14 2 1 1.5583111984582536 -0.5016574466062813 0.9709398583105912 0 0 0
12 2 1 2.679375907123472 1.1380532901018883 0.10990027373133718 0 0 0
13 2 1 2.321011442401894 0.1920092926113724 0.5538946018361088 0 0 0

Velocities

10 0.5555717779334237 -0.776828015865372 -0.35791147970689435
18 -0.8075349083733755 1.1316974847187586 0.20323344230826468
17 -0.08657601943509895 0.1641180624666742 -0.39143989812795926
20 -0.08836018004068147 -0.8169421889375894 1.2238300597797733
19 2.186992128047421 -1.0885611968145588 -1.4024220770330287
16 -0.552427111639488 -0.7249696276693799 1.9577982345973222
11 0.22153231566580806 1.0374940909253718 -0.8951789899686386
3 -1.1650480173919295 -0.4893305356865663 1.0126576700490968
2 -0.2784260238185826 0.22845558214753614 -0.9262470707952611
4 -1.677517705179489 -0.09966901853600989 0.32768097633171706
5 0.5874486613435078 2.301086648918441 -0.11227755294713863
6 1.4359863901866181 -0.5302514225012283 -0.7251559411151897
7 -0.7153690004679483 -0.8928971779748348 0.33171174373409196
8 -0.06242488652001227 -0.053484398257703014 -0.999380639099375
9 -0.659985738294151 0.4177941815452432 1.1669911087499718
15 1.010920436659065 0.3057182199497355 -1.0300123952337514
1 1.3098096895567852 1.2927147896807143 0.6165929080952766
14 1.381584971977055 -0.3360341664932103 -0.18400900770334755
12 -0.9443384287801572 -0.5354913437798381 -0.3557192725882839
13 -0.27276047303221 -0.18100288726378902 -0.20598473534049824

Bonds

1 1 18 19
2 1 17 18
3 1 19 20
4 1 16 17
5 1 11 12
6 1 3 4
7 1 2 3
8 1 4 5
9 1 5 6
10 1 6 7
11 1 7 8
12 1 8 9
13 1 9 10
14 1 15 16
15 1 1 2
16 1 14 15
17 1 12 13
18 1 13 14

Angles

1 1 17 18 19
2 1 16 17 18
3 1 18 19 20
4 1 15 16 17
5 1 2 3 4
6 1 1 2 3
7 1 3 4 5
8 1 4 5 6
9 1 5 6 7
10 1 6 7 8
11 1 7 8 9
12 1 8 9 10
13 1 14 15 16
14 1 13 14 15
15 1 11 12 13
16 1 12 13 14
